*Heading
** Job name: Job-2 Model name: Model-1
** Generated by: Abaqus/CAE 6.13-1
*Preprint, echo=NO, model=NO, history=NO, contact=NO
**
** PARTS
**
*Part, name=Part-1
*Node
      1,  -24.7542782,  -3.49653101
      2,  -24.1556225,  -6.44250393
      3,  -23.2076931,  -9.29532242
      4,  -21.9241905,  -12.0137358
      5,   -20.323679,  -14.5584364
      6,  -18.4292984,  -16.8926315
      7,  -16.2684383,  -18.9825687
      8,  -13.8723488,   -20.798027
      9,   -11.275671,  -22.3127594
     10,  -8.51595402,  -23.5048618
     11,  -5.63310146,  -24.3570976
     12,  -2.66879749,  -24.8571415
     13, -0.668480456,  -24.9910603
     14,   2.33602548,  -24.8906212
     15,   5.30675411,   -24.430275
     16,    8.2007494,  -23.6166821
     17,   10.9761677,   -22.461607
     18,   13.5928755,  -20.9817467
     19,   16.0130386,  -19.1985054
     20,   18.2016621,  -17.1376629
     21,      20.1271,  -14.8290195
     22,   21.7615128,  -12.3059568
     23,   23.0812645,  -9.60495758
     24,    24.067276,  -6.76507568
     25,    24.705286,  -3.82737494
     26,   24.9860744, -0.834332466
     27,   24.9055767,   2.17077398
     28,   24.4649582,   5.14449215
     29,   23.6705914,    8.0438242
     30,   22.5339603,   10.8268471
     31,   21.0715027,   13.4533195
     32,   19.3043613,   15.8852654
     33,    17.258091,   18.0875187
     34,   14.9622774,   20.0282364
     35,   12.4501181,   21.6793575
     36,   9.75793743,   23.0170078
     37,   6.92466259,   24.0218449
     38,   4.97759151,   24.4994602
     39,   2.00093842,    24.919796
     40,  -1.00464702,    24.979805
     41,  -3.99570584,   24.6786213
     42,  -6.92898893,   24.0205975
     43,  -9.76208305,   23.0152493
     44,  -12.4540224,   21.6771145
     45,  -14.9658842,   20.0255413
     46,  -17.2613468,   18.0844097
     47,  -19.3072224,   15.8817873
     48,   -21.073925,   13.4495239
     49,  -22.5359097,   10.8227882
     50,  -24.9949989,         -0.5
     51,   -23.672039,   8.03956032
     52,    -24.43964,   5.26345921
     53,  -24.7716045,   3.37159276
     54,  -24.9949989,          0.5
     55,  -22.9953995,          0.5
     56,     -20.9958,          0.5
     57,  -18.9962006,          0.5
     58,  -16.9965992,          0.5
     59,  -14.9969997,          0.5
     60,  -12.9973993,          0.5
     61,  -9.99800014,          0.5
     62,  -7.99839973,          0.5
     63,   -5.9987998,          0.5
     64,  -3.99919987,          0.5
     65,  -1.99959993,          0.5
     66,           0.,          0.5
     67,  0.353553385, -0.353553385
     68,          0.5,           0.
     69,  0.353553385,  0.353553385
     70,           0.,         -0.5
     71,  -22.9953995,         -0.5
     72,     -20.9958,         -0.5
     73,  -18.9962006,         -0.5
     74,  -16.9965992,         -0.5
     75,  -14.9969997,         -0.5
     76,  -12.9973993,         -0.5
     77,  -9.99800014,         -0.5
     78,  -7.99839973,         -0.5
     79,   -5.9987998,         -0.5
     80,  -3.99919987,         -0.5
     81,  -1.99959993,         -0.5
     82,  -22.7514076,  -4.30617952
     83,    22.519104,  -4.08871794
     84,  -22.8943691,   2.33033705
     85,    23.063549,  -0.49847582
     86,    21.225378,  -0.22800754
     87,   18.5409985, -0.0129913129
     88,   16.7919769, 0.0288663097
     89,     15.01507,  0.165544882
     90,    13.204134,  0.139190465
     91,   10.4871864, -0.213238388
     92,   8.36861992, -0.293649524
     93,   6.19481421, 0.0895939246
     94,   4.05081129, -0.0864750892
     95,   2.36168408, -0.347784162
     96,  -22.8831673,  -2.42897415
     97,  -20.9305496,  -2.42916632
     98,  -18.9611626,  -2.57419658
     99,    -15.84554,  -2.40751481
    100,  -13.9715815,  -2.34431434
    101,  -12.1188154,  -2.41162252
    102,  -10.2049389,    -2.569453
    103,  -7.91423321,  -2.55151892
    104,  -5.93301773,  -2.30545282
    105,  -4.03213596,  -2.29478216
    106,   -2.2559154,  -2.42998052
    107,   2.07245564,  -2.49540186
    108,   4.19694901,  -2.41979241
    109,   6.41299248,  -2.43860912
    110,   8.52686214,  -2.54285264
    111,   10.0003004,  -2.08909392
    112,   12.8677807,  -1.46940839
    113,   14.5223703,   -2.1493628
    114,   16.8070431,  -2.11557221
    115,   19.5131016,  -1.99603796
    116,   21.0758209,  -1.80829799
    117,   22.8882656,  -2.32491827
    118,  -20.9291859,  -4.34332228
    119,   -19.215313,  -4.55495739
    120,  -16.3094368,  -4.36349344
    121,  -14.8201447,   -4.0800581
    122,  -12.4081392,  -4.36336088
    123,  -10.2214994,  -4.56328154
    124,  -7.97872066,  -4.79154539
    125,  -5.68204594,  -4.08227682
    126,  -3.96557045,  -4.07302475
    127,  -2.24649167,  -4.26148224
    128,  0.109563522,  -4.43157196
    129,   2.44921708,  -3.78165007
    130,   4.75053835,  -3.93387437
    131,   6.57798481,  -4.36792421
    132,   8.10750198,  -4.29725838
    133,   10.3897743,  -4.44349861
    134,    12.515214,  -4.50328207
    135,   14.3377552,  -3.92318511
    136,   16.2998486,  -4.35246992
    137,   18.7720757,  -4.31624126
    138,    20.619688,  -4.33078384
    139,   22.7144337,  -6.41163826
    140,   20.3490124,  -6.68733025
    141,   18.3683395,  -6.12225246
    142,   15.6890898,  -6.35476255
    143,   14.2855501,  -6.43847752
    144,   12.9333458,  -6.29255962
    145,   8.43217754,  -6.68031168
    146,   5.87161446,  -6.77170372
    147,   4.10348082,  -6.46816778
    148,   2.31242204,  -6.37601185
    149,  0.033427991,  -6.94499636
    150,  -2.26006842,  -6.29775095
    151,  -4.61589813,  -6.39956522
    152,  -5.77901268,  -6.89178324
    153,  -8.27078152,  -6.28512812
    154,  -10.7945681,  -6.37307692
    155,  -11.9222422,   -6.5273304
    156,  -14.9008265,  -6.28817368
    157,  -16.7857533,  -6.13367128
    158,  -18.8759651,  -6.94437933
    159,  -20.8087673,  -6.26090527
    160,  -22.5209846,  -6.07882071
    161,  -20.7955112,  -8.17477131
    162,  -18.2917709,  -8.39503193
    163,  -17.1388073,  -8.16961193
    164,  -14.4364901,  -8.62811375
    165,  -13.0387201,  -9.08492661
    166,  -10.3547182,  -8.72620773
    167,  -7.95270729,  -9.40781307
    168,  -6.48471642,  -8.04815292
    169,  -4.50449228,  -8.71548367
    170,  -3.10442877,   -8.8033886
    171,   0.48886323,  -7.78760099
    172,   1.88889658,  -8.39762592
    173,   4.06471777,  -8.09325218
    174,   6.40448761,   -9.0235281
    175,   8.23157597,  -8.56229019
    176,    12.228838,  -8.36517143
    177,   14.9142942,  -8.34926224
    178,   16.7829266,  -8.25966835
    179,   18.8676338,  -8.10272789
    180,   20.9577713,  -8.22062206
    181,  -20.7557125,  -10.1950798
    182,  -18.4279442,  -10.3078022
    183,  -16.5202026,  -10.0568867
    184,  -14.6893787,  -10.8079214
    185,  -9.91636467,  -10.1375017
    186,  -8.28826714,  -11.1383438
    187,  -4.41152334,  -10.4416189
    188,  -2.99990058,   -10.622263
    189,   0.15627034,  -10.2820578
    190,   1.65644765,  -10.1497726
    191,   4.04619503,  -10.1850567
    192,   6.44347668,  -10.6662703
    193,   8.50013542,  -11.0869961
    194,   12.7028027,  -10.2100077
    195,   15.3665075,  -10.6491776
    196,   17.1119289,  -9.85396481
    197,   19.0039215,  -10.0361376
    198,   20.6096935,  -10.7569485
    199,  -20.4802456,  -12.3479099
    200,  -18.2201805,  -11.4910383
    201,  -16.4064751,  -11.9047918
    202,  -14.5333576,  -12.8286161
    203,  -12.6392946,  -12.6975574
    204,  -9.97967434,  -11.9089155
    205,  -8.29319286,  -12.9085407
    206,  -6.50790358,  -12.5577278
    207,  -4.26909876,  -12.9914837
    208,  -2.34442115,   -12.862278
    209, -0.302737266,  -12.5029268
    210,   1.78555155,  -12.7202902
    211,    4.8550005,  -12.6879005
    212,   6.20769501,  -11.8944492
    213,    9.0778923,  -12.4051561
    214,   10.2635508,  -12.3318024
    215,   12.0834055,  -13.0385418
    216,   15.0661306,  -12.3350782
    217,   16.3029079,  -12.2501984
    218,   18.3316116,  -12.5508022
    219,   20.4446888,  -12.7345142
    220,  -18.4700756,  -13.5660505
    221,  -16.8504448,  -14.6679602
    222,  -15.1092396,  -14.9645596
    223,  -12.4984388,  -15.3808727
    224,   -10.605154,  -15.0462599
    225,  -8.23506927,  -15.4538116
    226,  -6.53102732,  -13.8703184
    227,  -3.58658671,  -14.9767981
    228, -0.0278562624,  -14.2388544
    229,   2.41742659,  -14.5799932
    230,   4.09110689,  -14.0616703
    231,   5.84922504,  -13.8732052
    232,    7.5475421,  -14.1896839
    233,   10.0348663,  -14.1057749
    234,    11.962121,  -14.3858471
    235,    15.380393,  -14.9547844
    236,    16.651001,  -14.6543999
    237,   18.7423782,  -15.0521698
    238,   16.2191505,  -16.5320187
    239,   14.1615238,  -16.7582169
    240,   12.7227783,  -16.7461014
    241,   10.4624729,  -17.1326561
    242,    8.4453764,  -16.9562721
    243,   6.16248226,  -16.7790527
    244,   4.84500599,  -17.6688633
    245,   2.22134328,  -16.3835697
    246, -0.273667455,  -16.5273018
    247,  -2.03574657,  -17.0097561
    248,  -4.09715462,  -16.7106037
    249,  -5.98812819,  -16.4396515
    250,  -8.47231102,  -16.6767044
    251,  -9.95855808,  -17.4377708
    252,  -12.6055365,  -16.8374577
    253,  -15.2052202,  -16.3656559
    254,  -17.0272522,  -15.8094082
    255,  -14.9598799,  -18.8453083
    256,  -12.4950886,  -18.2629604
    257,  -10.0594721,  -19.0441875
    258,    -7.595119,  -18.5603905
    259,  -6.26750946,  -18.4383011
    260,  -4.45384407,  -18.8505402
    261,  -2.45283437,  -18.7979946
    262, -0.0222242568,  -18.9712734
    263,   2.41727352,  -18.2249794
    264,   3.96419024,  -19.0937691
    265,   5.79343224,  -19.1496201
    266,   8.34521294,  -18.8101387
    267,   10.2252703,  -19.2310486
    268,   12.0037737,  -18.4523087
    269,   14.7103243,  -19.0103931
    270,  -12.6332617,  -20.4878349
    271,  -10.6735449,  -20.6387577
    272,  -8.15243244,  -20.7946224
    273,   -6.5963397,  -20.3566322
    274,  -4.38267946,  -20.1374702
    275,  -2.79392862,  -20.3525448
    276,  0.117181256,  -20.5249786
    277,   2.21611905,  -21.2198486
    278,   3.60913086,  -21.1020527
    279,    5.9336977,  -20.6746521
    280,   7.97859335,   -20.628664
    281,   9.36222553,  -21.5735683
    282,   12.2468414,  -20.4383793
    283,  -6.28501415,  -22.7093658
    284,  -3.94983459,  -22.5804729
    285,  -2.20617533,  -22.8747005
    286, -0.468004525,  -22.9384823
    287,   2.22455311,  -22.9898052
    288,   3.98974442,  -22.7392387
    289,   6.05962086,  -23.1239796
    290,   7.93349504,  -22.6230412
    291,  -20.9001503,    2.2924087
    292,  -18.9270859,   2.29723024
    293,  -16.0498619,   2.34689689
    294,  -14.1488771,   2.39911556
    295,  -12.2102623,   2.43034911
    296,  -10.2323189,   2.41856909
    297,  -8.27961063,   2.36227083
    298,  -6.35686111,   2.27586937
    299,  -3.67183495,   2.33452368
    300,   -2.3219502,   2.74623513
    301, -0.0775672123,   2.37940001
    302,   2.55378199,   2.20362234
    303,   4.97908401,   2.52574515
    304,   6.82555723,   2.91232061
    305,   8.94787788,   2.51966667
    306,   11.0791912,   2.07550263
    307,   12.9620647,   2.15677118
    308,   13.9220514,     1.792817
    309,   16.9094181,   1.77849054
    310,   18.9347878,   1.81610322
    311,   21.1321926,   1.39502323
    312,   23.0313816,   1.32067871
    313,   22.6719646,   4.05735016
    314,   20.7316074,   3.91990638
    315,   18.8586826,   3.76009941
    316,   16.1302299,   3.89544868
    317,   14.6507339,   4.68468428
    318,   12.7517033,    4.3509984
    319,   10.6060534,   4.23532295
    320,   9.02645779,    4.1879859
    321,   6.25769329,   4.72540379
    322,   4.32083082,   4.81897306
    323,   2.27501607,   3.91117644
    324,  0.130629867,   4.40392542
    325,  -2.52579188,   4.51695251
    326,  -3.60409284,    4.1998229
    327,  -5.75470495,   4.07880831
    328,   -8.4956665,   4.36697817
    329,  -10.4631567,   4.42267275
    330,  -12.4182405,   4.32686567
    331,  -14.2990637,   4.26030779
    332,  -16.1354733,   4.14866543
    333,  -18.8852272,   3.98466086
    334,  -20.7772789,   3.99841046
    335,  -22.6985607,   4.12377357
    336,   23.3122158,     5.989079
    337,   21.3994637,    5.8611784
    338,   18.6020584,   5.50905657
    339,   16.5903931,    6.0750699
    340,   15.0433502,   6.66930485
    341,   12.7426891,   6.48120451
    342,   9.87049866,   5.90544653
    343,   8.39717197,   5.64726067
    344,    5.8808341,   6.38164997
    345,    4.4131012,   6.37065363
    346,   1.79697931,   6.31766891
    347, 0.0826380253,   6.63951492
    348,  -1.92639649,   6.14653492
    349,  -3.74760556,    6.4281106
    350,   -5.8075757,   5.97563457
    351,  -8.33094883,   6.47439718
    352,  -10.2555685,   6.65952921
    353,  -11.9753742,   7.15223265
    354,  -14.5032616,   6.13987732
    355,  -16.2998772,   5.83474398
    356,  -18.8621941,   5.49286175
    357,  -20.3576603,   6.40730476
    358,  -22.3629856,   5.87844801
    359,   22.8806629,   7.80516005
    360,   21.0773201,   7.82071733
    361,   19.1942406,   7.54176569
    362,   17.1613274,   8.49816418
    363,   14.7662201,   8.55516434
    364,   12.0200081,   8.50856018
    365,   9.91227627,   8.38368225
    366,   8.57379723,   8.34063053
    367,   6.34351826,   8.77958584
    368,   3.89061642,   8.36425877
    369,   1.93684566,   8.34941673
    370,  0.292955548,   8.69522285
    371,  -2.30251884,   8.10033417
    372,  -4.39707661,   8.28458595
    373,  -6.27085495,   8.03564644
    374,   -8.0281868,   8.47521114
    375,   -10.740036,   8.31416988
    376,   -12.134243,   8.53497887
    377,  -14.3851538,   8.19726467
    378,  -17.2033463,   7.86509752
    379,  -18.5731525,   8.41584682
    380,  -20.6435585,   8.19757938
    381,  -22.7526913,   7.82449818
    382,  -20.7515373,   10.1425638
    383,  -18.5942211,    10.254837
    384,  -16.3942089,   10.2521467
    385,  -14.1838064,    9.9995966
    386,  -12.7658615,   10.0457907
    387,  -10.5552368,   10.3035164
    388,  -8.54990768,   10.8972473
    389,  -3.78863835,   10.6636744
    390,  -1.22096074,   10.7898893
    391,  0.369214773,    10.459446
    392,   2.04409981,   10.5698795
    393,   3.96042514,   10.4887609
    394,    6.0166955,   10.6039238
    395,   8.23130322,   10.2957993
    396,   10.1697273,   10.6123838
    397,   12.3358679,   10.4412775
    398,   14.3044271,   10.2456932
    399,   17.1960354,   10.7081528
    400,   18.2966366,   11.1593618
    401,   20.9930439,   9.81869411
    402,    20.865881,    11.975708
    403,   18.0421257,   12.0477352
    404,   16.5328445,   11.9707623
    405,   14.7301292,   12.3340006
    406,   12.7397614,    12.327939
    407,   10.2347422,   12.0294418
    408,   8.30934715,   12.7032995
    409,   5.90928936,   12.4537134
    410,   3.74257374,   12.9457293
    411,   1.86186385,   12.6065311
    412, 0.0448089093,   12.2499332
    413,   -1.7511797,   12.3112621
    414,   -3.7104516,    12.601985
    415,  -5.93364382,   12.1196661
    416,  -8.46629238,   13.0618143
    417,  -10.5123415,    12.560195
    418,  -12.8045197,   12.9919252
    419,  -14.4787416,   13.0298443
    420,    -16.51021,   12.1370258
    421,  -18.5751457,   12.1621723
    422,  -20.7254429,   12.1837969
    423,   18.7728691,   14.1291132
    424,   16.4547958,   14.3788147
    425,   14.9290762,   14.2898693
    426,   12.7066641,   14.5486746
    427,   10.4735727,   14.3202744
    428,   8.31634617,   14.3717232
    429,   6.59130192,   15.3164635
    430,   4.20324039,   14.5519924
    431,   1.65773582,   14.6231079
    432, 0.0419655815,   15.1991434
    433,  -2.78024483,    14.140357
    434,  -4.24842453,    14.262373
    435,  -6.23982525,   14.3277311
    436,  -8.08403969,   14.3904581
    437,  -9.88737488,   14.6015577
    438,   -12.775259,   14.5622845
    439,  -14.2978916,   14.9144478
    440,  -17.0681305,   14.2347326
    441,  -19.1421356,   14.5915403
    442,   16.6063042,   16.1048431
    443,   14.3564034,   16.0472126
    444,   12.4572115,   16.5029411
    445,   10.6278257,   16.7242527
    446,   8.50972652,   16.9735546
    447,   6.72028732,   17.0841274
    448,   4.67967749,    16.307476
    449,   2.31053305,   16.6283283
    450, -0.290292174,   17.1074791
    451,  -2.54074645,   16.8126087
    452,  -4.35665226,   16.7409019
    453,  -6.04552698,   16.3804379
    454,  -7.95135832,   16.6023197
    455,   -9.8007555,   16.6772938
    456,  -12.8092928,   16.8553143
    457,  -14.6971092,   16.6405277
    458,  -16.6156826,   16.1100845
    459,   14.6629133,   18.2486038
    460,   12.0571947,   18.0292988
    461,   10.9952679,   18.2469139
    462,   8.45552921,   18.2361774
    463,   6.15976667,   18.6030426
    464,   4.52915621,   18.7232933
    465,   2.31679797,   19.2139015
    466, 0.0632591471,   19.1396465
    467,  -1.92645335,   18.9271221
    468,  -4.60388231,   18.7351532
    469,  -6.52171421,   18.3291988
    470,  -8.61474228,   18.3860149
    471,  -10.5594015,    18.332962
    472,  -12.5322676,   18.1594124
    473,  -15.1381187,   18.6533413
    474,   12.6245003,   20.4342289
    475,   10.4734325,   20.6543694
    476,   8.26703739,   20.4010372
    477,    6.0226779,   20.2955189
    478,   4.00059509,   20.9208241
    479,   1.37643719,   20.9236431
    480, -0.405321568,   21.1318474
    481,  -2.06917095,    20.723423
    482,  -4.52623272,   20.8149109
    483,  -6.66959238,   20.7669144
    484,     -8.60007,   20.4805202
    485,  -10.6292439,   20.4660168
    486,  -12.7626877,   20.3172588
    487,   5.82528162,     22.71842
    488,     3.948632,   22.8741417
    489,   1.18812335,   22.9477463
    490,  -0.76085639,   22.6041069
    491,  -2.78490877,   22.7654247
    492,  -4.55816412,   22.5975094
    493,  -6.60893583,   23.0024834
    494,  -24.9548512,  -1.50179482
    495,   -24.874567,  -2.50117421
    496,  -24.5941753,  -4.48626423
    497,   -24.394516,  -5.46878195
    498,  -23.8778801,  -7.40586472
    499,  -23.5617332,  -8.35731411
    500,  -22.8163261,  -10.2183809
    501,  -22.3882618,  -11.1250038
    502,    -21.42486,  -12.8831444
    503,  -20.8910694,  -13.7318335
    504,  -19.7236023,  -15.3616257
    505,  -19.0918026,  -16.1401081
    506,  -17.7371521,  -17.6179867
    507,  -17.0164795,  -18.3150043
    508,  -15.4942331,  -19.6196003
    509,  -14.6951084,  -20.2250786
    510,   -13.027277,  -21.3375263
    511,  -12.1612539,  -21.8427086
    512,   -10.371954,  -22.7469254
    513,   -9.4515543,  -23.1445045
    514,  -7.56665754,  -23.8274155
    515,  -6.60519123,  -24.1116447
    516,  -4.65195227,  -24.5633736
    517,  -3.66332054,  -24.7301445
    518,  -1.66998184,  -24.9441605
    519,  0.334096074,  -24.9977684
    520,   1.33613527,  -24.9642696
    521,    3.3321588,  -24.7769394
    522,   4.32293272,  -24.6234093
    523,   6.28204012,  -24.1978512
    524,    7.2472229,  -23.9265079
    525,   9.14108753,  -23.2688751
    526,   10.0667229,  -22.8836422
    527,    11.867959,  -22.0034447
    528,   12.7406626,  -21.5098934
    529,   14.4232273,   -20.419857
    530,    15.230381,  -19.8251228
    531,   16.7699432,   -18.541008
    532,    17.499876,   -17.853693
    533,    18.874176,  -16.3940697
    534,   19.5163326,  -15.6241083
    535,   20.7054977,  -14.0100803
    536,   21.2505951,  -13.1686087
    537,   22.2374306,  -11.4235134
    538,   22.6775837,  -10.5226974
    539,   23.4478226,  -8.67176914
    540,   23.7766705,  -7.72463465
    541,   24.3191738,  -5.79463673
    542,   24.5319576,  -4.81487799
    543,   24.8388824,  -2.83371663
    544,   24.9325275,   -1.8355006
    545,   24.9994335,  0.168177456
    546,   24.9725876,   1.17041695
    547,   24.7985096,   3.16763973
    548,   24.6515579,   4.15941095
    549,   24.2390118,   6.12129974
    550,    23.974081,   7.08826208
    551,    23.329031,   8.98644924
    552,   22.9499512,   9.91462135
    553,    22.081728,   11.7216597
    554,   21.5939789,     12.59762
    555,   20.5151348,   14.2873821
    556,   19.9257717,    15.098465
    557,   18.6519032,   16.6465168
    558,   17.9694462,   17.3809948
    559,   16.5189762,   18.7649517
    560,   15.7532949,   19.4122047
    561,   14.1471949,   20.6120567
    562,   13.3093596,   21.1627254
    563,   11.5708532,   22.1611233
    564,   10.6729774,   22.6072445
    565,    8.8272028,   23.3897514
    566,   7.88227129,   23.7248764
    567,    5.9559164,   24.2801781
    568,   3.99126077,   24.6793404
    569,   2.99851084,   24.8195267
    570,   1.00014782,   24.9799862
    571, -0.00225141947,          25.
    572,  -2.00542688,   24.9194355
    573,  -3.00298119,   24.8189869
    574,  -4.98200417,   24.4985638
    575,  -5.96028948,   24.2791061
    576,  -7.88654423,   23.7234573
    577,  -8.83141518,   23.3881607
    578,  -10.6770496,   22.6053219
    579,  -11.5748444,   22.1590385
    580,  -13.3131704,   21.1603279
    581,  -14.1509075,   20.6095085
    582,  -15.7567911,   19.4093666
    583,   -16.522356,   18.7619762
    584,   -17.972578,    17.377758
    585,  -18.6549015,   16.6431561
    586,  -19.9284897,   15.0948763
    587,  -20.5177078,   14.2836866
    588,  -21.5962486,   12.5937309
    589,  -22.0838375,   11.7176819
    590,  -22.9517365,   9.91048717
    591,  -23.3306503,   8.98224735
    592,  -23.9634094,   7.12425518
    593,  -24.2194023,   6.19843245
    594,  -24.6237984,   4.32071495
    595,  -24.8828392,   2.41749287
    596,  -24.9573421,   1.45982397
    597,  -23.9951992,          0.5
    598,  -21.9955997,          0.5
    599,  -19.9960003,          0.5
    600,  -17.9963989,          0.5
    601,  -15.9967995,          0.5
    602,     -13.9972,          0.5
    603,  -11.9975996,          0.5
    604,  -10.9977999,          0.5
    605,  -8.99819946,          0.5
    606,  -6.99860001,          0.5
    607,  -4.99900007,          0.5
    608,   -2.9993999,          0.5
    609, -0.999799967,          0.5
    610,  -23.9951992,         -0.5
    611,  -21.9955997,         -0.5
    612,  -19.9960003,         -0.5
    613,  -17.9963989,         -0.5
    614,  -15.9967995,         -0.5
    615,     -13.9972,         -0.5
    616,  -11.9975996,         -0.5
    617,  -10.9977999,         -0.5
    618,  -8.99819946,         -0.5
    619,  -6.99860001,         -0.5
    620,  -4.99900007,         -0.5
    621,   -2.9993999,         -0.5
    622, -0.999799967,         -0.5
    623,  0.973668575, -0.396336168
    624,  0.976049066,  0.536300719
    625,   0.50911665,   1.14201725
    626,  0.551984668,  -1.06816435
    627,   23.1241837,   6.90404654
    628, 0.0282560587,  -1.13616729
    629,  0.969107628, 0.0586624891
    630,    1.1285392, -0.961331427
    631,   1.08846021,   1.14377654
    632,   -23.038681,   6.93211174
    633,   11.8362436,   20.9561787
    634,   1.43482947, -0.318099499
    635,  0.697901011,   -1.7109319
    636,   1.48655057,  0.554359436
    637,  0.205020502,   1.78988779
    638,   1.40479565, 0.0992102847
    639,   1.59686399, -0.750341713
    640,   1.85650218,    1.1455009
    641,   1.98266947, -0.536280274
    642,   1.46469963,  -1.63471663
    643,   2.15319872,  0.624825835
    644,   1.14764452,   1.73137116
    645,   1.92103195,  -1.15377414
    646,  0.788199723,   -2.2590487
    647,  0.637645006,   2.40074468
    648,   2.16255975, -0.827126265
    649,   2.75943112,  0.666988671
    650,   8.84422493,  -22.4290562
    651,  -13.5753345,   19.7830696
    652,   20.9511395,  -11.9271669
    653,   22.1270237,   7.57624626
    654,  -23.7894135,   3.29467058
    655,  -23.6576366,   4.21470594
    656,  -23.9521561,   1.43604994
    657,  -23.8833714,   2.36795735
    658,  -23.4902496,   5.12781477
    659,   11.9383364,   19.7739773
    660,  -21.8498173,    7.6052351
    661,   10.9982872,   21.4033394
    662,   20.3200264,   12.7493086
    663, -0.584127307,   1.55460346
    664, -0.530664682,  -1.16178584
    665,   -20.955801,  -1.46850443
    666,  -18.9439793,  -1.54097939
    667,  -16.9330101,  -1.52045977
    668,   -14.954978,  -1.42821336
    669,  -13.0089388,  -1.42769408
    670,  -10.0637503,  -1.54715121
    671,  -8.00661659,  -1.53619385
    672,  -5.98467636,  -1.41004717
    673,  -4.01942778,  -1.39507568
    674,  -2.15426946,  -1.48699224
    675,  -22.9439659,  -1.46763635
    676,  -3.31494451,   1.42652774
    677,  -5.21300983,   1.36307991
    678,  -19.9489727,   1.40232253
    679,  -17.9736633,   1.40559125
    680,  -21.9532795,   1.40889204
    681,  -16.0192528,   1.41734588
    682,  -14.0691252,   1.44483888
    683,   -12.104291,   1.46430409
    684,  -11.1124506,   1.46145833
    685,  -9.12994766,   1.43866038
    686,  -7.16040707,   1.39636242
    687,   -22.951395,   1.41827381
    688,  -20.9491253,   1.40219915
    689,   -18.960041,   1.39836895
    690,  -16.9957294,   1.40694106
    691,  -15.0447187,   1.42857265
    692,  -13.0881348,   1.45397353
    693,  -10.1187143,    1.4517926
    694,    -8.144063,   1.41842854
    695,  -6.18336964,    1.3750242
    696,   -4.2533536,   1.37439394
    697,  -2.46344352,   1.56016612
    698,  -21.9482002,  -1.46209931
    699,  -19.9560146,  -1.49570549
    700,  -17.9285526,  -1.58168137
    701,  -15.9406576,  -1.46089709
    702,  -13.9822283,  -1.41718316
    703,  -12.0436993,  -1.44717693
    704,  -11.0661535,  -1.48706007
    705,  -9.03661442,  -1.60593319
    706,  -6.98530197,  -1.46069658
    707,  -4.99556017,  -1.39072812
    708,  -3.06244659,  -1.42178214
    709,  -11.8184032,  -20.9991493
    710,   17.5089951,  -16.4995594
    711,  -10.2343454,   21.7518177
    712,   19.6531086,   13.4637308
    713,  -17.7276268,  -16.3489971
    714,   19.9017181,  -13.5253954
    715,   -20.228672,   13.0091143
    716,   21.8568249,  -10.2543535
    717,   10.4163866,  -21.5756111
    718,   4.16773987,  -23.6576519
    719,   -19.897316,  -13.1630983
    720,  -10.1284904,  -21.8947906
    721,   13.1499033,  -20.0594025
    722,   8.05236721,   22.5848656
    723,  -22.4196091,   8.72276497
    724,  -8.36922836,  -22.5618629
    725,  -4.32103014,  -23.5218964
    726,  -22.0457058,   9.60920811
    727,   16.5719013,   17.3296967
    728,  -23.7801571,  -3.42388439
    729,   10.1101561,   21.7996349
    730,  -4.76728296,   23.5223675
    731,  -2.44357848,  -23.8761234
    732,   3.00356555,   23.8779716
    733,  -23.8728256,  -2.45650053
    734,   -21.551054,  -10.6696453
    735,  -21.9936752,  -9.81655502
    736,   22.7422771,  -7.55013323
    737,  -15.6961355,  -18.2878189
    738,   18.1381626,  -15.7897081
    739,  -2.86368155,    23.780386
    740,   5.11386824,  -23.4209652
    741,   1.31949914,  -23.9877071
    742,  -17.9373112,   16.0583153
    743,  0.367419302,  -24.0030117
    744,  -1.87775648,   23.8222065
    745,  -1.50808811,  -23.9619598
    746, -0.567624509,  -23.9922199
    747,   1.07743955,   23.9519939
    748,    23.495348,  -4.46611166
    749,   15.7437267,   17.8339443
    750,   2.04062009,   23.9327297
    751,  0.101572134,   23.9135876
    752,  -0.88577491,   23.8359871
    753,  -23.9440842,  -1.48164475
    754,    21.421978,  -11.0993404
    755,   23.9997768,   1.24939811
    756,  -8.46902847,    22.502758
    757,  -23.6695061,  -4.37788057
    758,   23.4917221,   5.05605412
    759,  -14.2081013,  -19.3913422
    760,   23.8508797,   -2.5842514
    761,   2.27324271,  -23.9325886
    762,   24.0157928,  -0.66557163
    763,   21.7736988,   10.3489246
    764,   16.1474266,  -17.8071899
    765,  -3.82353759,   23.6825294
    766,    23.925106,    2.2040596
    767,   3.95359921,   23.7822552
    768,   23.9563046,  -1.62571096
    769,   23.8100948,   3.15663838
    770,    24.029623,  0.292643845
    771,   23.6974907,  -3.53239107
    772,   22.5516663,  -8.50933933
    773,  -23.0684986,  -7.16850901
    774,  -22.7549763,  -8.06323814
    775,   17.8428154,   15.9849272
    776,   23.2020302,  -5.40377283
    777,   22.1854095,   9.51514053
    778,  -5.70675087,   23.2844715
    779,   3.22303677,  -23.8253002
    780,   22.2390785,  -9.39428139
    781,  -9.26027966,  -22.2633648
    782,   23.6630268,   4.10840607
    783,  -9.36703682,   22.1525536
    784,   9.15372944,   22.1690025
    785,  -23.5234985,  -5.32195044
    786,  -3.37573409,   -23.733778
    787,  -19.7021923,   13.8129339
    788,   22.5643902,   8.67052841
    789,  -11.0980196,   21.3028278
    790,   9.68811607,  -22.1316948
    791,   -14.370347,   19.2301941
    792,   13.9577436,  -19.5718327
    793,  -22.3938751,  -8.94597816
    794,  -11.9421644,   20.8254375
    795,  -18.5549126,   15.3402491
    796,    13.350646,   19.8246899
    797,  -10.9821358,  -21.4684391
    798,   7.63245296,   23.2333508
    799,  -16.4128761,  -17.6715755
    800,  -21.6367531,   10.4833183
    801,  -18.3331966,  -15.6237612
    802,  -16.6022873,   17.4132614
    803,    2.8534255,   1.42150211
    804,   2.73308682, 0.0313182548
    805,    1.3709079,  -2.38801026
    806,   1.19009924,   2.32391834
    807,   2.44720101,  -1.37174737
    808,  -22.6704063,   -5.2028017
    809,  -19.9081821,   2.28659701
    810,   -19.957159,  -2.47834277
    811,  -4.96737862,  -2.27986813
    812,  -4.51509476,   2.25931478
    813,  -17.5828762,  -15.1311855
    814,   12.8228617,  -19.2067375
    815,  -21.8984833,   2.30423331
    816,  -21.9049816,   -2.4166708
    817,  -15.1630363,  -17.5808868
    818,    21.854208,    -7.601758
    819,   4.87126875,   22.8027687
    820,   21.3341637,   11.1696739
    821,  -20.3209076,   10.9695644
    822,    11.162323,  -20.7411556
    823,   17.4025002,  -15.2067204
    824,   6.83359432,   22.6099415
    825,  -1.36120081,  -1.61461282
    826,   19.6434784,  -12.2922401
    827,   15.5235071,  -17.0242519
    828,    15.321229,   16.9307442
    829,  -13.0374899,   18.9681587
    830,  -18.9031487,   13.3482161
    831,   19.0696278,   12.5994682
    832,  -1.83682179,   22.7373161
    833,   8.69075012,   21.3181286
    834,   -9.0687294,  -21.3998852
    835,  -9.86977005,  -21.0474968
    836,  -22.8222694,  -3.37480545
    837,  -21.5898056,  -8.57482338
    838,  -9.81219101,   20.9055977
    839,   1.31959212,  -23.0067921
    840,   21.0371609,  -9.96693039
    841,  -21.9582481,   -7.7468071
    842,   21.4147949,   -9.1758213
    843,  -8.28072643,  -21.6673985
    844,  -1.35796642,  -22.9702682
    845,  -21.1855526,  -9.39440632
    846,  -3.07373762,  -22.7737789
    847,   22.7150936,   -3.2277813
    848,   -8.9936142,   21.3025322
    849,    9.6193943,   20.9941711
    850,   23.0043163,  -1.41561186
    851,   23.0717106,  0.407636344
    852,   4.87130594,  -22.4776592
    853,  -21.1554909,   9.30825424
    854,  -2.93476367,   2.50745034
    855,  -3.11151195,  -2.34636283
    856,     21.41642,   9.04679108
    857,  -21.2326145,   6.56911993
    858,   -17.221571,   15.4608917
    859,   12.5267649,   19.1756992
    860,  -1.79366839,   1.80461311
    861,  -7.53195858,   22.7837372
    862,  -17.2898026,   16.7464619
    863,  -15.8854332,   18.0494633
    864,  -17.0884781,  -17.0267067
    865,   15.4364338,  -18.4134884
    866,   17.2623825,   16.7041245
    867,   14.0159473,   19.1233807
    868,   19.3338966,  -14.2994404
    869,   18.3379631,   15.1577072
    870,   16.8448887,  -17.1861954
    871,  -11.4611425,  -20.1679497
    872,   17.0406628,   15.4604893
    873,   3.43177247,   1.04127049
    874,   2.62574792, -0.805905521
    875,   3.38763404,    0.5560866
    876,   0.84996593,   3.15014291
    877,  -1.23791468,   2.29179692
    878,   21.7477036,  -2.92565632
    879,   12.9972582,   18.4972229
    880,   11.7458973,   18.6442184
    881,  -3.61052561,  -21.7089844
    882,   20.2210121,  -9.64596176
    883,  -4.00598717,  -3.18813705
    884,  -7.28453207,   21.8680878
    885,  -3.99526525,   3.22534227
    886,  -19.8700962,   3.14761066
    887,  -20.0016003,  -3.45960021
    888,   7.17650223,   20.6243038
    889,  -7.85726881,   20.8556175
    890,   20.8720036,  -7.23611307
    891,  -21.8277512,   3.18448329
    892,  -20.9615231,   7.38898516
    893,   9.18217182,   20.1416397
    894,  -21.7818241,  -5.91745853
    895,   19.1093159,  -13.0394869
    896,  -21.4467106,   5.73889685
    897,  -16.3689632,  -15.2796745
    898,   22.0805988,  -1.21361339
    899,  -21.8693447,  -3.36152053
    900,   12.0227652,  -19.4060955
    901,   4.86565065,    21.921402
    902,   -19.455183,   10.6099148
    903,   20.5640583,    10.578723
    904,   10.0297127,  -20.2305393
    905,   1.36782646,  -22.0534954
    906,   15.7634506,  -15.9579029
    907,   14.4594173,   17.0373573
    908,  -15.2767639,   17.3400841
    909,    -13.81147,   18.4408951
    910,  -12.2503347,   19.4895267
    911,  -19.8702374,   11.7841206
    912,    19.679945,   12.0431929
    913,  -21.5236225,   8.46244717
    914,   -7.4942112,   -21.788393
    915,  -22.2784061,  -6.91995144
    916,  -20.3715992,  -8.94991016
    917,  -17.8076839,   14.7924871
    918,   15.6968737,   16.0837841
    919, -0.648570895,  -1.81463468
    920,   4.10244226,   1.20069265
    921,   3.07201171,  -1.54276407
    922,   3.68325591,   1.84989119
    923,   3.38915491, 0.00666852621
    924,   1.40264058,   2.93509674
    925,  -11.7731876,   18.6667652
    926, -0.702280343,   2.94661379
    927,   1.19986308,  -3.10903811
    928,  0.287660599,  -2.70284843
    929,  -1.77289796,   3.09778619
    930,  -1.44268095,  -2.53280592
    931,  0.295232773,   3.34261894
    932,  -21.5283623,  -6.64480448
    933,   18.5508537,  -13.7752409
    934,    11.166749,  -19.4278145
    935,  -18.1290474,   12.8937702
    936,  -14.5601864,   17.9039478
    937,   18.3511696,   12.9303102
    938,   13.3192654,   17.7418957
    939,   18.6210384,   11.8339729
    940,  -19.0186825,   11.3977118
    941,   11.2066383,   17.6540928
    942,   6.61227131,   21.2203579
    943,   7.07300329,   19.5547295
    944,   21.9522533,  -2.07518983
    945,   11.3101196,    19.191721
    946,  -4.90857887,  -3.16470861
    947,  -3.31878829,   3.37599397
    948,  -5.60768557,   3.14957261
    949,  -18.9068394,   3.15206194
    950,   19.7826481,   -8.5441103
    951,   -4.2801652,  -21.3700085
    952,  -2.84392691,  -21.8625412
    953,  -22.5471611,   5.00621986
    954,  -20.8449192,    3.1527791
    955,  -20.9234428,  -3.39295983
    956,  -19.1184158,  -3.56869578
    957,  -8.18440247,   19.6592922
    958,  -3.11793017,    -3.255193
    959,   21.6368961,  -6.83205271
    960,  -21.8457642,  -5.13541365
    961,   22.1328201, -0.357065797
    962,  -16.4375973,  -16.4219742
    963,  -21.8518105,  -4.28193521
    964,  -19.8802662,   9.81279087
    965,   3.96576118,   21.9288349
    966,   8.83243465,   -20.765852
    967,   19.6864719,   9.94432735
    968,    12.991437,  -18.0664406
    969,   16.8359604,  -15.8971786
    970,   2.20267868,  -22.0842686
    971,  -15.3499441,   16.0891323
    972,  -7.14226532,   -20.744545
    973,   3.23820639,  -1.01760364
    974,   2.90739059,   -2.0950973
    975,   1.99823737,  -3.06115746
    976,  0.836879134,  -3.76532745
    977,   21.0804615,  -4.98005152
    978,     5.831429,   21.0894604
    979, 0.0753992572,  -1.84487271
    980,  0.635199785,   4.11673546
    981,    -20.43297,  -6.97631598
    982,  -15.9532595,   15.4740515
    983,  -2.73275232,   3.57935405
    984,  -2.26746893,  -3.34039378
    985,  -3.27515435,  -20.9671764
    986,  -21.6096325,   4.90047836
    987,   -1.9371289,  -21.6955872
    988,    -18.37463,   14.0886145
    989,   17.0321045,  -12.7503958
    990,   11.2266016,  -18.3254967
    991,   4.78446102,  0.766116917
    992,  -17.7336845,   11.7683001
    993,    -13.29319,    17.654665
    994,   17.3263588,   12.0956192
    995,   12.3029118,   17.3250332
    996,  -4.23969555,    4.1041131
    997,   -21.732233,   4.04736328
    998,   6.14054394,   19.4593945
    999,   19.4152966,  -9.29797173
   1000,   19.6179733,  -7.33302784
   1001,  -20.0564194,  -4.47758436
   1002,   -8.9900856,   19.2254505
   1003,   14.1626577,  -18.2050533
   1004,   12.2621584,  -17.5789452
   1005,   22.1279411,  0.502852082
   1006,   3.03019404,   22.9258957
   1007,   1.49428141,  -21.1912785
   1008,   3.11011171,  -22.9051895
   1009,   -6.7409277,   -21.589201
   1010,  -20.2566948,   -10.979023
   1011,  -19.0027161,  -9.21201038
   1012,   16.0487404,   16.6286449
   1013,    2.7702775,  -2.66559315
   1014,   3.73700428,  -1.70668566
   1015,   3.56986141,  -2.26199031
   1016,    2.2229178,  -1.91424763
   1017,   1.22852278,  -20.0977554
   1018,    2.0047071,  -3.49441457
   1019,  -4.89998674,  -20.9195137
   1020,   6.93002987,   18.6212368
   1021,   20.3201294, -0.872342587
   1022,   13.5237007,  -17.4371281
   1023,    1.6264919,  -3.68582368
   1024,   5.26293755,   19.1953259
   1025,   1.21706021,   3.98318505
   1026,   4.89063787, -0.145102516
   1027,   4.77497053,   1.67459655
   1028,   14.8308611,  -17.5947456
   1029,   21.2072105,  0.570286274
   1030,  -16.9564247,   13.1081924
   1031,  -18.0960407,  -9.53913593
   1032,   9.07201958,  -19.9223042
   1033,   9.26881409,  -18.9974403
   1034,   4.63757133,  -1.36055982
   1035,   5.76334429,   1.41564751
   1036,   4.74311209,  -0.78053081
   1037,   2.31701946,   3.30057716
   1038,   11.4010277,  -17.2574577
   1039,   -3.0934062,  -4.16696215
   1040,   2.20892572,  -20.3586025
   1041,   3.30082655,  -3.46136069
   1042,    21.796608,   -5.6055007
   1043,   20.3984489,  -5.49086666
   1044,   5.79737759,   21.9202747
   1045,  -5.48547459,  -21.7556705
   1046,   -5.4928751,  -20.3569775
   1047,   19.4232521, -0.0690611228
   1048,  -19.7447109,  -6.55942822
   1049,   5.01942253,   20.0346432
   1050,   22.0739098,    1.3670994
   1051,  -17.3302345,  -9.83363914
   1052,   10.3453093,  -18.1805897
   1053,  -3.76600027,   5.00714922
   1054,  -20.1410408,  -5.59351873
   1055,   17.8041534,   11.2725706
   1056,   13.4288683,   16.8247204
   1057,   11.4193888,   16.9916306
   1058,  -18.9535027,  -11.0363646
   1059,  -7.05575228,  -19.7609978
   1060,   17.2169895,   -13.958024
   1061,   18.0747833,  -11.3971968
   1062,   1.30735719,  -3.94175911
   1063,  -14.0170708,   17.1581249
   1064,  -18.1540737,   11.0221167
   1065,   17.4534874,   12.9568129
   1066, -0.663039386,  -3.49217415
   1067,  -7.77802134,   18.8239346
   1068,  -9.39887238,   20.0602646
   1069,  0.794922233,   -20.934639
   1070,   2.91580081,  -21.1829071
   1071,  -7.41175604,  -22.7335606
   1072,   2.17637563,   21.9695034
   1073,   13.3604231,  -16.0058804
   1074,   3.43087626,  -2.83618045
   1075,  -16.3924904,   13.6342564
   1076,   7.42118263,    17.727047
   1077,   6.48803234,   2.14526606
   1078,   4.40020657,   2.20800614
   1079,   4.01014948, -0.631352484
   1080,    5.1090951,  -2.19328523
   1081,   16.5232143,   13.6227503
   1082,  -7.42730474,   17.9213409
   1083,   5.77876186, -0.538366795
   1084,   5.31695127,  0.339658797
   1085,   17.2281322,   11.3201456
   1086,  -16.8256741,    11.409421
   1087,  -1.45399642,  -3.42203212
   1088,   1.67494798,  -5.00647116
   1089,   21.5859604,   -4.5659008
   1090,   5.60715246,   2.21669245
   1091,     3.140028,  -4.25373554
   1092,  -3.92271948,  -4.95725918
   1093,    4.0873065,  -2.95837903
   1094,  -14.1674929,   15.9653444
   1095,   1.33802295,   4.90897322
   1096,  -3.80174899,   5.75690746
   1097, -0.444303781,  -21.6518154
   1098,  -9.78473854,     18.78685
   1099,   1.23119378,  -18.7801723
   1100,   2.86920404,  -20.3277607
   1101,   19.7152443,  -6.08606291
   1102,   20.3106461,  0.606194377
   1103,   19.4496269, -0.795203745
   1104,   9.39226151,  -18.0226974
   1105,  -19.3663826,  -7.30862808
   1106,  -17.0041256,  -9.10946083
   1107,  -17.7269459,  -10.6254463
   1108,   19.3429489,  -11.1305971
   1109,  -21.0125847,  -5.20632505
   1110,  -4.76742792,  -22.2327881
   1111,   10.3947573,   17.3545818
   1112,  -6.86957359,   19.3118591
   1113,  -6.08361721,  -19.7354565
   1114,  -19.6137505,  -11.7371292
   1115,   17.5235062,   13.8795815
   1116,   4.57289791,  -21.6378918
   1117,  -5.26742935,  -23.1986465
   1118,   14.0306005,  -15.2611856
   1119,    21.976572,   2.23057723
   1120,   6.76952219,   17.8231544
   1121,   6.43249655,   1.46623003
   1122,  -1.42635584,  -4.35406876
   1123,   5.62587023,  -1.61918998
   1124,   4.16100788,   2.82662964
   1125,   3.98546767,  -3.52315021
   1126,   2.70482874,   2.88828158
   1127,   3.15130663,     4.586236
   1128,   4.93580914,   3.15934038
   1129,   1.23878086,  -5.92067337
   1130,  -5.59279203,  -19.0391712
   1131,   -6.7456789,  -19.1035023
   1132,   6.45151329,  -1.10437047
   1133,   2.01119947,   5.42474604
   1134, -0.643911481,  -4.40557623
   1135,  -8.26413918,   17.4992867
   1136,   15.6198473,   12.5857821
   1137,  -4.66134453,  -5.72826958
   1138,  -4.41436625,   5.78907633
   1139,  -3.20046902,   5.07320929
   1140,  -17.2697372,   10.6461906
   1141,   22.2826538,  -4.91296959
   1142,  -14.7792673,   15.4890661
   1143,  -5.83118963,   19.9333229
   1144,  -10.1999016,   19.6187153
   1145,   19.0296841,  -5.46992731
   1146,   20.2521038,  -1.58891296
   1147,   13.2846737,  -14.5409794
   1148,   14.9361763,  -16.0034637
   1149,  -20.0340519,  -7.74168205
   1150,     6.032794,   17.8039055
   1151,   7.51330185,   16.7910194
   1152,   22.9485512,    2.2245512
   1153,   17.3601513,   14.7031574
   1154,    3.9370563,   3.50057459
   1155,   -4.9606638,   6.72675276
   1156,   7.42335844,  0.310124576
   1157,   1.97374654,   2.67156792
   1158,   16.1405144,  -15.3495836
   1159,   7.22586346, -0.463563055
   1160,  -5.76632261,  -17.7247829
   1161,   1.03300154,   5.59336758
   1162,  0.243495032,  -5.27642918
   1163,  -2.21154094,  -5.25832176
   1164,  -11.4540377,    19.987051
   1165,  -3.02918768,    4.3405118
   1166,  -19.5591545,  -8.46665955
   1167,  -3.21981144,   5.75789738
   1168,  -5.07623625,    5.8636241
   1169,  -6.94726706,  -17.8114262
   1170,  -4.97620964,  -19.6044426
   1171,   -7.7454319,  -19.8608475
   1172,  -5.51453829,   -4.9587636
   1173,   -3.9322989,  -5.82629967
   1174,   19.6056328,   -2.9554913
   1175,  -17.7334061,   9.88992691
   1176,  -9.40599442,   17.9451752
   1177,  -7.12589121,   16.9859238
   1178,   16.5688171,   11.1701298
   1179,   15.5723133,      13.4171
   1180,   19.6958752,  -4.72660208
   1181,  -13.7267132,   15.3021641
   1182,   5.52664852,   18.5687313
   1183,   2.63930106,   4.85827923
   1184,   4.53442287,  -3.51976156
   1185,   1.79749429,   1.80198789
   1186,  -13.4790859,     14.70963
   1187,  -4.07839155,  -6.69154215
   1188,   4.70330524,   3.93487024
   1189,   7.19840193,   1.32192838
   1190,    7.7302413,  -1.17849529
   1191,   5.91986609,   3.33507514
   1192,  0.500976384,   5.05182123
   1193,  0.503338516,  -6.11364841
   1194,   3.43498945,   2.47993517
   1195,   3.48375082,   5.22756052
   1196,  -9.59505653,  -20.1989746
   1197,  -4.05502939,   7.27223349
   1198,   -1.3539151,  -5.38697004
   1199,  -2.70349431,   5.12990332
   1200,  -3.14707756,  -6.02886581
   1201,  -5.34656096,  -5.82317972
   1202,  -4.82507324,  -4.04668522
   1203,   20.5565109,  -3.24789953
   1204,  -6.43458462,  -17.1249981
   1205,   -19.019537,   9.48657322
   1206,   14.9071112,   11.4438143
   1207,   15.6319637,   14.2076569
   1208,   -13.077569,   15.5991926
   1209,   6.67324734,   4.11866474
   1210,  -0.54215759,  -5.35315084
   1211,   5.25318193,     5.141397
   1212,  -2.05898046,   4.77152586
   1213,   5.06637144,  -4.47336435
   1214,   7.28466034,   3.70142078
   1215,   19.0632801,  -3.80886436
   1216,  0.832042515,   4.72851896
   1217,   0.57486707,   6.08122063
   1218,   7.59598112,  0.868113458
   1219,   3.68415451,   5.96607542
   1220,  -5.10625601,  -6.68908596
   1221,  -14.6915016,   14.0073671
   1222,  -4.71252918,   7.55134773
   1223,  -3.15861154,   6.42015171
   1224,   7.45144129,  -2.81728578
   1225,  -6.00131655,  -5.95911694
   1226,  -12.3783455,   16.0269661
   1227,  -5.29299736,   -16.989212
   1228,  -7.52594709,  -17.0674496
   1229,   15.9589682,   15.6094704
   1230,    13.878212,   11.9567213
   1231,   20.1427555,  -11.5347023
   1232,  -1.14712226,   21.5076447
   1233,   8.20509243,  -19.7227306
   1234,   13.4786406,   15.8568077
   1235,   22.5121384,   4.98257399
   1236,   7.81756639,  -21.5979671
   1237,   9.62216854,   16.9934845
   1238,     8.697999,  -21.5921745
   1239,  -5.82578373,   5.02502155
   1240,   15.1118879,   16.0733814
   1241,   15.9209394,  -14.1622152
   1242,   9.98496914,   19.8655682
   1243,  -3.32903266,   -19.893919
   1244,   5.75805378,  -22.0938377
   1245,   8.87360382,  0.434641391
   1246,   5.55721569,  -2.72240949
   1247,   4.29918051,  -4.80124187
   1248,   5.60249853,  -5.13300085
   1249,   5.51869822,   4.28591967
   1250,   4.40735149,   5.78691149
   1251,  -6.92152834,  -5.28127146
   1252,   7.80454206,   2.49776053
   1253,   7.80177498,  -2.21294379
   1254,  0.818985105,  -4.46029854
   1255,   1.08423066,   6.59987545
   1256, 0.0711514056,   5.46920776
   1257,  -1.69665599,   4.21009159
   1258,   8.06306839,   1.65616763
   1259,  -2.67323112,   5.72492313
   1260,    8.8086834,   19.2050838
   1261,  -3.61548567,  -7.84286022
   1262,   14.3732061,   15.1713028
   1263,  -13.4912329,   13.6734591
   1264,  -15.6446962,   14.1422033
   1265,  -7.44947815,   6.27615643
   1266,  -4.56403255,  -17.5193691
   1267,   13.5456476,   12.8206654
   1268, -0.247818306,   3.69600844
   1269,  -0.18898724,   21.8725643
   1270,  -1.95365763,   21.6953735
   1271,   9.56934834,   18.9739971
   1272,   6.99422216,  -22.8182182
   1273,   5.29984665,  -21.2402191
   1274,  -3.88020658,  -19.3892174
   1275,  -4.87690878,  -16.2393017
   1276,   6.73464489,  -21.5395012
   1277,   1.02620769,  -17.4981384
   1278,  -1.13540351,   -20.820694
   1279,    4.8335104,  -3.07194901
   1280,  -11.9596224,   15.1933346
   1281,   -16.208498,  -9.21430111
   1282,  -7.05206299,   -16.503315
   1283,  -16.9252777,  -10.8749514
   1284,   19.0076599,  -6.73290825
   1285,   18.5778599, -0.818574786
   1286,   -8.5714798,  -19.5865631
   1287,   2.99867606,   3.66722107
   1288,   -6.8962574,  -2.39570379
   1289,   19.4352856,  0.654936194
   1290,  -11.3297186,   17.8446064
   1291,  -17.9594059,   2.30319691
   1292,   12.5518284,   15.5361948
   1293,  -6.85251141,   16.0655479
   1294,  -15.7815723,  -15.7859087
   1295,   -9.0516119,    17.081871
   1296,  -20.0884361,   7.17366552
   1297,    22.374052,   5.89516115
   1298,  -5.57886028,   18.6364594
   1299,  -1.24550521,   3.58245206
   1300,    3.6164155,   4.14034653
   1301,   2.86259484,   6.44081831
   1302,   5.72742987,   -3.2338922
   1303,  -1.34931672,   20.5871906
   1304,  -2.79524016,   21.7489471
   1305,  0.131427988,  -3.58538127
   1306,   3.80708861,   -5.7695508
   1307,   4.63705444,  -5.48559523
   1308,   13.5990372,   14.9368982
   1309,    8.2616148,   -3.0734055
   1310,   9.40582848, -0.0649826899
   1311,   5.12652254,   6.01868057
   1312,   1.88342512,   7.42720461
   1313, -0.418964684,   5.95122242
   1314,   7.15360165,   1.97142994
   1315,   8.06936455,   3.42286968
   1316,  -1.24135351,   4.71586275
   1317,  -2.19949079,   3.84379601
   1318,  -2.85378528,  -19.2742481
   1319,  -15.8638668,    -14.80861
   1320,  -15.3577042,   13.3467798
   1321,  -14.5111856,  -15.8523941
   1322,  -7.26262474,  -4.44313097
   1323,  -9.33106613,  -19.3549747
   1324,  -6.46838236,   7.08857632
   1325,  -7.53239059,   5.25912142
   1326,   17.7007046,  -6.72174644
   1327,   22.2727795,   6.76221752
   1328,  -15.2998886,   14.9137278
   1329,   14.5253744,   13.3558588
   1330,   13.1143551,   11.5596848
   1331,  0.475333303,   21.9033604
   1332,  -3.33868432,  -18.7033825
   1333,  -6.26145172,  -15.1759109
   1334,   -10.168334,   17.5037785
   1335,  -17.3155689,  -11.7294741
   1336,  -12.0925169,   13.7850428
   1337,  -11.2468586,   15.7575779
   1338,    2.6152575,  -17.3252716
   1339,  -7.64083624,   15.6915836
   1340,   7.17137623,   -20.432766
   1341, -0.556636035,  -19.8860435
   1342,  -15.6296234,  -10.2868881
   1343,   3.51514578,  -20.3757019
   1344,  -4.66657066,   19.8109169
   1345,  -5.38374281,   17.5646515
   1346,  -8.45744324,  -18.6029663
   1347,  -8.72327328,   16.1989422
   1348,    11.569294,   16.2088528
   1349,  -16.0981445,  -11.0851612
   1350,   21.5413017,   4.92109013
   1351,   3.33142567,  -18.4172516
   1352,   20.2412529,   1.37159503
   1353,   18.6272602,  0.828313053
   1354,  -3.88440871,  -18.0613117
   1355,  -7.61216021,  -3.52321577
   1356,  -17.0186749,   3.21875548
   1357,   3.04545093,  -6.06920052
   1358,  -10.3570127,  -19.8194389
   1359,   5.09685135,  -6.92913675
   1360,   6.42961788,  -19.9433746
   1361,   2.72091889,  -5.37346268
   1362,   5.74507952,  -5.99268723
   1363,  -2.67381001,  -18.1631222
   1364,   7.30175781,  -3.53818154
   1365,    3.5960753,   7.50571394
   1366, -0.555087864,   7.13540363
   1367,  0.827156723,   7.41232347
   1368,   9.71337128,  0.815799057
   1369,   8.67105484,  -1.34561253
   1370,  -1.72244489,  -20.1885147
   1371,  -3.69196415,   22.7109661
   1372,  -5.68187332,   6.90415382
   1373,  -5.81714535,  -3.20233989
   1374,  -13.9933958,  -16.9060173
   1375,   17.0436707,  -6.16195154
   1376,  -7.31955338,   14.7969055
   1377,  -5.21055126,  -15.0299997
   1378,      21.3771,   6.73644352
   1379,   1.92737913,  -17.0483856
   1380,  -6.26276731,   17.3205147
   1381,  0.460670352,   20.7416725
   1382,   0.64767468,  -19.5985451
   1383,  -15.1826506,  -9.23403835
   1384,  -8.63984299,  -17.6796551
   1385,   17.6721725, 0.00896807387
   1386,  -9.05571747,  -2.85749435
   1387,  -15.0988045,    2.3669672
   1388,  -17.9575024,   3.17289066
   1389,  -1.51091671,   19.8649063
   1390,    19.867815,   2.94364429
   1391,    4.2959342,  -20.0203743
   1392,  -4.47875977,   17.6960716
   1393,  -16.1050949,  -14.2353315
   1394,    11.604599,   15.2542667
   1395,  -17.5806351,   -12.556673
   1396,  -9.19736004,  -17.7910347
   1397,  -11.4435244,   14.4841528
   1398,   9.25925827,   17.8409119
   1399,   13.0859385,   13.6494932
   1400,   6.56769037,  -5.15660143
   1401,   4.03977346,  -4.14972019
   1402,    3.3840301,  -6.76566601
   1403,   7.33020496,  -4.32372522
   1404,   8.08233452,  -3.65123725
   1405,   3.72635388,  -7.44908762
   1406,   10.7403879,   15.2351284
   1407, -0.983905792,   6.42182779
   1408, -0.0772289559,   7.89350653
   1409,  -11.3244257,   13.0956459
   1410,   11.5641928,   14.0293293
   1411,   1.07032669,   8.39660549
   1412,  -9.83452129,   13.5253429
   1413,  -5.21344757,    16.604763
   1414,  -3.55486751,   17.7624626
   1415,  -11.0961542,  -19.3636112
   1416,   2.80078888,   7.52401304
   1417,  -3.13482666,   -17.195446
   1418,   14.4144831,   14.5040627
   1419,  -1.83312428,  -18.0302048
   1420,   7.47755527,  -18.7158451
   1421,   12.2165413,   13.1022615
   1422,  -1.24330318,  -19.2754059
   1423,  -3.63459682,   21.7368717
   1424,   18.2845993,  -4.91202402
   1425,   17.0664787,  -7.26936054
   1426,  -3.80088997,  -15.8295746
   1427,  -13.2232571,   -16.129034
   1428,  -14.4501829,  -17.9990273
   1429,   17.7427635,  0.917370677
   1430,   -8.0657053,  -17.4857597
   1431,   -2.0993011,   19.7963924
   1432,   20.8717403,   3.03996229
   1433,  -10.3638611,  -17.9577065
   1434,  -18.7749081,  -12.5053577
   1435,   20.4157085,   6.99163342
   1436,  -15.4515562,  -11.3275585
   1437,  -7.29652262,  -15.3016367
   1438,  -13.6189184,   12.2328138
   1439,   3.46915412,  -17.2495499
   1440,  -1.66000223,   6.84644604
   1441, -0.882546604,   8.34728432
   1442,    7.4789052,  -5.87597036
   1443,   2.70099044,  -7.08006382
   1444,   5.26749277,  -7.61095238
   1445,  -1.33415115,   7.60726166
   1446,   10.7881918,    12.920104
   1447,   4.90938377,   6.76681328
   1448,   1.29762602,   9.16714191
   1449,  -3.02056813,  -16.0619736
   1450,   7.42656088,  -17.8066101
   1451,  -9.16370106,   14.9003677
   1452,  -3.65618634,   18.7681751
   1453,   11.4656353,   12.3227959
   1454,   17.8332615,   1.84197795
   1455, -0.990902603,   19.2474899
   1456,  -2.85110235,   19.7740269
   1457,  -19.4036484,  -14.0101595
   1458,   3.08699489,  -16.5416813
   1459,  -13.6210041,  -11.8348408
   1460,   4.18754148,  -18.1966534
   1461,  -15.4826822,  -12.0379419
   1462,   20.4751682,   5.85199118
   1463,  -7.71607208,  -14.0699387
   1464,  -8.00676727,   -16.391304
   1465,   8.96770573,   16.3933048
   1466,   8.21330929,  -5.01046801
   1467,   9.01962757,  -4.84520006
   1468,   3.50297594,  -8.44957256
   1469,   8.95782471,  -3.32811213
   1470,  -1.59319329,   8.82879639
   1471,   6.68046188,  -6.70959616
   1472,   7.39780188,  -5.10230541
   1473,   1.85454082,   8.96328545
   1474,   2.05654573,  -7.39433241
   1475,  -8.87868023,   13.9684963
   1476,   -9.4624815,   15.8136568
   1477,   8.40891647,  -17.8849144
   1478,  -3.70588708,   19.7730427
   1479,  -2.64658308,   17.8233738
   1480,   12.0365591,   11.7179861
   1481,   2.43836832,  -15.3904743
   1482,   -13.598175,  -10.9118242
   1483,  -18.8916168,  -14.8447733
   1484,   19.3647614,   6.67751884
   1485,    10.002037,   15.4174891
   1486,   18.1755123,   6.47741842
   1487,   8.86115742,  -4.18026829
   1488,   8.34233189,  -5.80939198
   1489,   8.92786884,   15.1446075
   1490,   4.01394701,  -9.06949711
   1491,   3.09388566,  -7.77519464
   1492,   5.95778656,  -7.50952482
   1493,    1.5946753,  -6.67577887
   1494,  -1.15483499,   9.57762623
   1495,   2.91735196,   8.65404415
   1496,  -9.22977734,   12.6436186
   1497,  -8.40289783,   15.2908964
   1498,   15.6818256,   -5.0511179
   1499,    14.943429,  -7.28201437
   1500,  0.534885228,  -16.4489841
   1501,   3.75998497,  -15.4857597
   1502,   18.8365231,   2.83596587
   1503,  -3.47049618,   16.8053074
   1504,   10.8705845,   11.4826813
   1505,  -5.41612244,  -13.8493042
   1506,  -7.33353472,  -13.1307125
   1507,  -14.2616844,  -9.72880363
   1508,  -12.7814198,  -11.8475008
   1509,    19.963953,   7.92033625
   1510,   9.61655998,   14.6620331
   1511,  -8.79562378,  -15.9979935
   1512,  -14.3792677,    11.420557
   1513,    19.684967,   4.76759577
   1514,    16.985815,  -4.94578123
   1515,    17.699789, -0.903297842
   1516,  -13.2066832,  -17.6237087
   1517, -0.314529628,  -6.26401901
   1518,   9.20643044,  -5.65739298
   1519,  -9.85255051,   12.2227879
   1520,   9.83787537,  -2.97107744
   1521,   6.61325598,  -8.29276657
   1522,   8.38042927,   15.7108622
   1523,   1.48972058,  -7.70646524
   1524,   2.91012812,  -8.83481216
   1525,   4.98882341,   -8.6214447
   1526,  -3.48132682,   8.92308044
   1527, -0.0382687785,   9.82031918
   1528,   11.5218029,   10.9464521
   1529,   9.83285618,   11.3515825
   1530,   17.2717266,   5.58449602
   1531,  -3.43699336,   15.9002342
   1532,   19.6324463,    8.6689167
   1533,  -13.7222681,   -18.513876
   1534,  -11.9836302,  -17.4981976
   1535,   4.41764212,  -15.7807903
   1536,   1.60878944,  -15.6877537
   1537,  -13.3565521,  -9.98872089
   1538,  -13.5559683,  -12.7509651
   1539,   9.93093014,   13.3487349
   1540,   17.5716763,  -4.31137514
   1541,   -13.515976,   10.7357817
   1542,  -15.3745899,   12.0749073
   1543,  -8.96121407,  -16.9019413
   1544,   20.6055546,   4.85597134
   1545,   17.8132305,   4.98929644
   1546,   10.0147438,  -5.33681726
   1547,    16.792942, -0.955489218
   1548,   17.8597374,  -1.79615259
   1549,  -1.21126795,  -6.65683174
   1550,    7.1413784,  -9.17708302
   1551,  0.629830301,  -15.4717665
   1552,   5.18667698,  -16.1751957
   1553,   9.47833729,  -6.63006067
   1554,  0.795969725,  -14.4687185
   1555,  -13.7955446,  -8.84156799
   1556,   9.62041187,  -3.78118777
   1557,   7.50428677,  -7.54351473
   1558,  -12.4697847,  -10.2169924
   1559,  -14.4279747,  -13.7047272
   1560,  0.827310503,   -7.0210309
   1561,    10.739397,  -4.94034147
   1562, -0.661722183,    10.283143
   1563,  -3.45872974,   7.96455956
   1564,   16.6441765,   4.70682621
   1565,  -10.9726925,   11.4422255
   1566,   5.93609238,  -8.21677303
   1567,   2.37425709,   11.3924818
   1568,   7.73443079,   15.0444231
   1569,   -4.2615509,   15.8611917
   1570,   9.39762592,   12.3950052
   1571,   17.2432747,   7.26738834
   1572,   19.3470116,   9.17702198
   1573,   9.05065155,   13.7759848
   1574,  -11.4228687,  -16.8046265
   1575,   15.9022894, 0.0927149951
   1576,  -9.83384323,  -16.4609509
   1577,   19.7869968,   3.82870412
   1578,   17.5216007,  -3.04500437
   1579,   18.1257019,  -3.74475813
   1580,    11.626977,   9.65419579
   1581,  -15.0039511,   10.5941162
   1582,   5.40628767,  -8.14200306
   1583,   5.72881413,  -8.83781719
   1584,   10.6572428,  -3.80809069
   1585,  -15.8832254,   11.0728703
   1586,  -15.5529776,   9.80994129
   1587,   6.82486582,   -9.7761364
   1588,  -9.58265305,   -15.459816
   1589,  -10.8300858,  -16.2262115
   1590,   8.37635326,  -7.61141634
   1591,   7.52848196,  -6.69792747
   1592,   11.3288422,  -4.42596769
   1593,   -1.9262774,   10.1025925
   1594,   -4.1741538,   8.90772724
   1595,  -3.15482855,   7.14008331
   1596,   3.22707915,   10.9827452
   1597,   1.39557409,   11.7408619
   1598,   1.71828377,   -13.621829
   1599,   5.34994984,  -17.3249741
   1600,  -11.6295557,  -10.5583525
   1601,  -15.3043203,  -13.9384117
   1602,  -11.9787626,   12.2576132
   1603,   18.2147255,    4.5136714
   1604,  -4.20375824,   15.0509968
   1605,  -5.05926275,   15.7374477
   1606,   7.56305075,   13.6341524
   1607,   7.27988482,   15.7320261
   1608,   8.30980396,   11.4475241
   1609,   15.9259224,   1.01711047
   1610,    15.860528, -0.835591793
   1611,   15.9869823,   5.12357616
   1612,   18.1491756,   7.89556694
   1613,   17.9756584,   8.76002598
   1614,  -11.9636078,  -16.1257343
   1615,   16.1672573,  -3.01811886
   1616,   16.1995544,   7.39726734
   1617, -0.414583355,  -15.3062172
   1618,   17.9742584,   9.63330555
   1619,  -3.53666377,    14.204072
   1620,   6.08556414,  -9.86883068
   1621,  -2.29551816,   10.9513206
   1622,    -4.908885,   14.9777098
   1623,  -4.69990635,    9.6077919
   1624,   7.99335527,  -9.58923912
   1625, -0.134141713,   10.9380913
   1626,  -1.65869117,   11.3444023
   1627,   11.1635628,  -5.55977821
   1628,  -2.42337918,    7.1374855
   1629,  -15.6381264,  -13.0029202
   1630,   2.32429624,   9.39839363
   1631,  0.725872874,   10.9392109
   1632,   -14.777051,   9.34513378
   1633,   3.18399334,  -14.6256762
   1634,  0.940575242,  -13.5242214
   1635,   4.92358494,  -18.2258797
   1636,  -3.45588756,    15.043642
   1637,  -11.9741249,    10.746417
   1638,      6.97753,   14.4677715
   1639,  -11.8558788,  -11.3161583
   1640,  -10.6667757,  -10.1001272
   1641,   7.92295551,   16.2896748
   1642,   16.8894844,  -3.65983486
   1643,    15.341114,  -2.53654528
   1644,   15.8160038,   6.41042757
   1645,   17.5854073,   10.5121803
   1646,  -11.3013029,  -15.5229378
   1647, -0.620838881,   11.4886236
   1648,   5.66804314,  -18.1268806
   1649,   6.69971991,   13.0676012
   1650,   6.01073647,   13.9807539
   1651,  -3.65380025,   13.4103394
   1652,   7.18409157,  -10.2540922
   1653,   11.8628216,  -5.04269505
   1654,  -5.82063198,   15.5028753
   1655,    14.868022,  -3.26215315
   1656,   15.7081366,  -1.73911858
   1657,  -12.7601194,   11.4984255
   1658,  -15.2045422,   8.58597946
   1659,  -13.4596853,   9.19174385
   1660,   15.2865467,   5.51318407
   1661,  -12.1092911,  -9.27394962
   1662,  -1.69851518,   15.7578297
   1663,  -16.4570274,  -13.6431818
   1664,  -11.0361872,  -14.2511549
   1665,  -1.16394365,   11.9623995
   1666,   13.0908852,  -5.11328268
   1667,  -12.1509905,  -7.57256937
   1668,  -6.56606245,   15.1775236
   1669,   4.92546272,   -18.912426
   1670,   5.11950922,   15.1089954
   1671,  -3.04466367,   12.5234661
   1672,  -4.77278042,   14.3992834
   1673,   14.1420708,  -2.80289292
   1674,  -1.02842009,   14.6393242
   1675,   -13.573164,   8.09122562
   1676,  -16.0506229,   9.02190018
   1677,   -10.259903,  -13.9138365
   1678,   7.20562267,   12.2218018
   1679, -0.464871854,   13.5229959
   1680,   13.0277729,  -2.91256094
   1681,   4.64095688,  -19.5164223
   1682,   13.1256571,  -3.96499181
   1683,   5.74006796,  -11.1072054
   1684,  -12.6474342,   8.80103874
   1685,  -13.6567993,   7.13939381
   1686,  -12.6148424,  -7.06954956
   1687,  -11.6982946,  -8.07185555
   1688,   5.70299339,   15.9524803
   1689,    4.6955452,   13.5250139
   1690,  -1.48644042,   13.0171518
   1691, -0.577428818,   16.3265781
   1692,  -9.86667156,  -14.7120514
   1693,   -10.637886,  -13.0024815
   1694,  -11.4776745,  -6.99715567
   1695,  -11.7882938,   -12.455409
   1696,  -11.0480299,  -7.53392553
   1697,   5.30502176,  -19.9850197
   1698,  -9.55554962,  -13.6457987
   1699,  0.305528224,    13.229764
   1700,   5.28264332,  -10.3768978
   1701,   6.87235165,  -11.4094439
   1702,   12.5176401,  -3.40833807
   1703,   13.7402315,  -4.54056406
   1704,   13.4587593,  -2.39464569
   1705,  -14.6950197,   7.21528244
   1706,  -2.91849327,   13.3346691
   1707,  -13.4425955,  -7.81582403
   1708,  -11.4692154,   -13.355443
   1709,   -11.668828,     8.815835
   1710,   14.3683014,  -5.14058352
   1711,   7.40220737,  -12.1221704
   1712,  -9.94164467,  -10.9975834
   1713,   5.05550337,  -11.5742836
   1714,    7.9582963,   -11.538043
   1715,   11.9390888,   -3.9110837
   1716,   13.6753635,  -5.74743748
   1717,   -9.0985117,  -8.25012016
   1718,  -12.4569702,  -13.7925434
   1719,   4.81828547,  -20.5464993
   1720,   12.4436178,  -2.39071155
   1721,   14.1137285,  -0.54624927
   1722,  -8.98358917,   -14.440711
   1723,  -13.5871077,   6.17866945
   1724,  -15.5572042,   7.86879587
   1725,  -15.5132933,  -7.38035107
   1726,  -11.9638796,  -5.45614576
   1727,   6.76797676,  -12.8768063
   1728,   3.93039632,  -11.3893337
   1729,   11.9224615,  -2.81647921
   1730,  -14.2356215,  -14.5608053
   1731,   13.3659887,  -1.05171299
   1732,  -9.11342049,  -11.9401512
   1733,  -9.97060776,  -7.68686962
   1734,  -8.60161209,  -9.15253162
   1735,  -10.1807079,  -5.73664951
   1736,  -10.7944365,  -10.8936644
   1737,   3.05484033,  -11.1528959
   1738,   5.51549149,  -12.2727222
   1739,   7.69207907,  -13.3297195
   1740,   14.1210995,  0.193639591
   1741,  -9.51087189,  -9.16571331
   1742,  -11.4710131,  -4.50383759
   1743,  -9.40363312,  -6.39059639
   1744,  -13.7793245,  -15.3414373
   1745,  -9.10111237,  -11.0299873
   1746,   12.4837933,  -0.71978426
   1747,   2.64289188,  -10.0972271
   1748,   8.36462975,  -13.6261234
   1749,  -8.29612637,  -12.0405092
   1750,  -9.05476093,  -9.98757076
   1751,   8.92812443,   -13.231019
   1752,    4.7697196,   -9.5778389
   1753,   11.6061478, -0.953379214
   1754,  -7.52974319,  -12.1127157
   1755,    9.6368475,  -11.7528791
   1756,   12.3139286, 0.00333475089
   1757,   12.1909637,  0.747476697
   1758,   8.87578487,  -11.5556755
   1759,   9.70388508,  -12.4356718
   1760,  -6.70869732,  -11.4069128
   1761,   10.4709978,  -13.0689039
   1762,   13.0073195,   1.57534051
   1763,  -7.39250088,  -10.4464045
   1764,   10.0395308,  -10.7024813
   1765,   9.78905487,  -13.2188892
   1766,  -5.83230305,  -11.7426586
   1767,   11.0654058,   -12.794611
   1768,   11.9776344,    1.5982151
   1769,   10.2205791,  -11.6159801
   1770,   -5.2969017,  -12.5906191
   1771,   8.45275974,  -15.1772623
   1772,    10.735343,  -12.2806168
   1773,   12.3374586,    2.4326396
   1774,   11.4727173,  -13.5340929
   1775,   11.3336372,   1.17702091
   1776,   8.41091061,  -14.3161125
   1777,  -4.95741177,  -11.3937178
   1778,  -5.96492529,  -13.2129135
   1779,   9.47458363,  -16.1047935
   1780,  -3.92312217,  -13.8009224
   1781,   12.9044132,   3.26543307
   1782,   11.5586176,  -12.3177652
   1783,   10.7879648,  -13.8916168
   1784,   10.3116331,  -15.0745506
   1785,  -3.95016527,  -11.2944841
   1786,    11.246707,  -10.8941402
   1787,   12.6347103,  -11.1970158
   1788,   13.5434589,   2.53909945
   1789,   11.9738693,   3.43157411
   1790,   10.4949427,  -16.0950298
   1791,  -2.96013784,  -12.4885073
   1792,   11.6820259,  -16.0355797
   1793,   7.49199057,  -15.0740948
   1794,   13.8256874,  -12.4143553
   1795,  -3.34463358,  -13.1551437
   1796,  -3.30668521,  -11.4870749
   1797,    6.6791811,  -13.9785929
   1798,   13.1122961,  0.869221807
   1799,   13.2533674,  -13.1380444
   1800,   14.4196453,  -11.5220032
   1801,   13.6811075,  -11.3014679
   1802,   12.6468143,  -13.7903471
   1803,   6.56997538,  -14.8959255
   1804,   13.3827562,  -9.53376675
   1805,   7.42699909,  -15.9613953
   1806,   5.49286509,  -15.4471207
   1807,   14.5051823,  -10.2930641
   1808,   11.8865156,  -9.77810669
   1809,   4.86550236,  -14.3817863
   1810,   14.1584702,  -9.35173035
   1811,   15.2802134,  -9.48078537
   1812,   5.86706924,  -13.0410748
   1813,   5.07429934,  -13.6884556
   1814,   15.9021416,  -9.95110226
   1815,   11.3075314,  -8.72332478
   1816,    15.864255,  -8.59777069
   1817,   16.1117249,  -11.1048651
   1818,   16.4897404,  -9.30575562
   1819,   15.1329937,  -11.3084841
   1820,   18.0510921,  -8.87671471
   1821,   15.6493778,  -11.7621765
   1822,   17.8103275,  -10.3106537
   1823,   15.7594719,  -12.9200191
   1824,   17.3256969,  -10.9403419
   1825,   15.1998777,   -13.639267
   1826,   16.8345947,  -11.5877991
   1827,   14.5001173,  -13.0378723
   1828,   17.5739765,  -12.0728321
   1829,    13.916399,  -13.7976303
   1830,   18.0028553,   3.84131074
   1831,  -15.5779743,   6.76886511
   1832,   16.4860439,  -13.4462767
   1833,  -2.36825728,  -13.9023638
   1834,  -7.23882866,  -9.65327358
   1835,  -17.5521336,  -13.3260384
   1836,   4.67147923,   -15.101408
   1837,   21.4466228,  -3.80608702
   1838, -0.831295311,  -18.1123409
   1839,  -9.69151974,  -5.05963421
   1840,  -16.0860291,   3.25575709
   1841,   13.4565744,   -6.9532876
   1842,  -8.42733765,  -3.88948727
   1843,   17.9819374,   -14.501792
   1844,   5.19617558,   15.8032293
   1845,  -4.53800774,   13.4374437
   1846,  -13.4312553,  -19.9454536
   1847,  -7.30161095,   7.28043127
   1848,   2.59939599,  -12.7616482
   1849,   13.0166464,  -8.03742599
   1850,   21.8499298,   3.09874344
   1851,   18.2746868,  -9.68839836
   1852,    6.3591671,   11.7455158
   1853,  -5.41923428,   22.3519077
   1854,   19.7988052,  -10.3969536
   1855,  -5.52710342,  -7.83929396
   1856,  -1.12137616,  -14.5296364
   1857,  -19.4160576,   8.71137905
   1858,   6.46856499,  -17.8822937
   1859,   13.8597898,    3.6476202
   1860,  -12.0831499,   17.3469543
   1861,  -2.46914339,   11.7038498
   1862,   2.46685505,  -11.0344162
   1863,   20.1594048,   11.3451757
   1864,  -7.58888531,  -5.63286924
   1865,   2.72829986,   12.2530479
   1866,   13.6675625,  -3.40825963
   1867,  -9.78388214,   11.4431324
   1868,   15.2051497,   7.66436577
   1869,  -11.4173822,    8.0896883
   1870,   21.7027264,   3.99407578
   1871,   11.1161985,  -9.79318619
   1872,  -19.5390759,   6.25308943
   1873,   9.39708996,  -11.2068224
   1874,  -1.34060323,  -15.7841902
   1875,   15.9373655,  -7.60203409
   1876,    -11.65905,   16.5362072
   1877,   10.4547529,   9.20202065
   1878,   9.46894073, -0.915115714
   1879,   17.7064075,   2.88686919
   1880,  -12.7215595,  -5.31133795
   1881,   8.00701714,   17.4222603
   1882,  -5.42247772,   21.0580883
   1883,   7.36814928,   -16.863081
   1884,  -16.8848248,     9.483325
   1885, -0.0245213024,  -17.5313339
   1886,   12.1160307,   9.27406311
   1887,  -12.2268572,  -19.6497211
   1888,   9.19908333,  -8.64518261
   1889,   17.1529198,   -8.8101244
   1890,   -16.790678,  -8.55656528
   1891,  -19.2082386,  -5.49535799
   1892,   8.96143913,   3.34842014
   1893,  -2.94626164,  -15.1877899
   1894,  0.494568586,   11.4690084
   1895,  -2.57599878,   15.8746243
   1896, -0.0966445804,   20.0802193
   1897,   15.7065287,   8.33560467
   1898,  -1.52426648,   16.8125858
   1899,   1.00081658,    10.136198
   1900,   7.54555941,  -10.9045677
   1901,   7.47107983,   11.3217411
   1902,  0.638747811,    9.4481678
   1903,  -2.84418464,   20.7556229
   1904,   12.5736599,  -15.2491026
   1905,  -5.06883574,   4.97076321
   1906,  -11.1884537,  -2.46510005
   1907,  -13.1802921,   2.40961885
   1908,  -1.53608739,  -11.3573647
   1909,  -6.61003256,    4.1462965
   1910,   9.45787811,  -17.0493641
   1911,  -3.71983242,   -10.479476
   1912,    5.3577466,   13.0974197
   1913,  -13.4746914,   5.23013306
   1914,  -22.8073311,    3.2315197
   1915,   0.18842636,  -13.3642921
   1916,  -11.8052254,  -18.8431606
   1917,  -3.73567438,  -8.75682163
   1918,  -1.60983062,  -7.73916149
   1919,  -11.4216604,   9.93886852
   1920,   4.00754356,   19.7153072
   1921,  -19.8269272,   3.97088361
   1922,  -20.6835308,   4.81607819
   1923,  -12.7819777,   7.10504723
   1924,   15.0109224,  -5.76304913
   1925,  -17.3501701,   8.78273964
   1926,   15.0042305,  -4.47827148
   1927,   9.17314243,   10.5531635
   1928,   13.2923059,   10.7394428
   1929,   13.8579578,  -7.68260527
   1930,  -8.49048996,   5.43928623
   1931,  -23.3281841,  -6.25258398
   1932,  -8.43297863,  -8.32227039
   1933,  -3.08109212,  -5.09778452
   1934,  -18.0645313,  -14.3960466
   1935,   15.4629622,   4.31003141
   1936,   10.8270054,   3.14886808
   1937,    3.2672472,  -11.7975044
   1938,   9.20050335,  -2.80898905
   1939,   11.1559401,   4.56701612
   1940, -0.962806046,   18.1210899
   1941,  -1.34705937,   5.76652098
   1942,  -2.80158949,  -8.14498234
   1943,  -5.18319416,   8.68727112
   1944,  -7.69637823,   13.4893703
   1945,  -1.78234184,   17.9475269
   1946,  0.256792068,    22.866951
   1947,   11.6501961,  -6.20819187
   1948,  -13.0490408,  -2.36573529
   1949,   -11.218709,   2.42533708
   1950,   1.01424277,  -11.8301506
   1951,   17.1296997,   9.62298965
   1952,   3.20339704,   14.0132236
   1953,    18.751646,  -3.27830195
   1954,   3.50507379,   9.64183712
   1955,  -6.94796038,   13.9132729
   1956,  0.275188297,   16.0423069
   1957,   17.5406437,  -7.82186794
   1958,   -6.6326108,  -6.08445692
   1959,   10.2035933,  -7.06305885
   1960,  -17.6766758,  -8.80331326
   1961,   6.00360823,   5.51573038
   1962,   11.3687334,  -3.29610753
   1963,    21.185524,  -1.03112292
   1964,  -5.83495712,  -10.6827154
   1965,   20.6706581,   8.48568153
   1966,  -18.2060413,  -7.15626097
   1967,   15.8449945,   10.9047766
   1968,  -18.3169918,  -3.75647306
   1969,   11.3725071,  0.588964522
   1970,  -11.3658667,  -3.43527961
   1971,  -2.38674569,  -14.6627111
   1972,  -3.68611813,   9.79628849
   1973,  -12.9799213,  -19.0919151
   1974,  -1.26814175,  -22.0785751
   1975,   11.1864319,  -14.8474903
   1976,   21.8155441,   8.30976295
   1977,   7.22941017,   4.76034689
   1978, -0.325262547,  -7.48065138
   1979,  -5.18508196,     13.99858
   1980,   8.97182178,    1.7387563
   1981,  -6.50328827,   3.19583845
   1982,  -14.9054117,  -2.34901929
   1983,  -9.25405598,   2.39578843
   1984,   1.08392465,  -8.01542091
   1985,  -4.43269396,   21.7113285
   1986,    1.4344542,  -9.32651901
   1987,  -17.9651108,   4.01781034
   1988,  -16.4169655,   6.59769964
   1989,  0.808724701,   19.7702293
   1990,   14.3237543,   2.95625734
   1991,  -6.27732182,   21.8075905
   1992,   7.97022581,   19.4318733
   1993,   5.39943838,   16.7777805
   1994,  -17.8551235,  -2.78911853
   1995,  -7.31145287,   2.31895328
   1996,   4.37398672,  -13.2991724
   1997,  -7.11967516,   8.23457527
   1998,  -15.7689323,  -6.68323326
   1999,  -2.30475044,  -15.2245398
   2000,  -19.0360222,  -6.31550074
   2001,   5.12110281,   17.8288078
   2002,  -8.63242054,  -5.25102711
   2003,  -10.9218969,     17.03549
   2004,    9.3428297,  -2.32228613
   2005,   10.1512976,  -9.69892788
   2006,   16.3315678,   2.74206495
   2007,  -7.37206841,  -6.78997087
   2008,  -8.04572487,    12.138628
   2009,  -9.70893383,  -3.82500935
   2010,  -15.1551409,     3.294698
   2011,   6.85703373,    5.1791873
   2012,  -15.2158852,   4.20031309
   2013,  -9.45150566,    10.388938
   2014,    3.7507875,   11.9406147
   2015,   2.96077228,   13.1458197
   2016,  -13.4880209,  -5.18417215
   2017,   5.74955416,   7.48218536
   2018,   10.4400253,  -3.12955594
   2019,   1.76793027,  -11.8617277
   2020,   2.52378106,  -11.8830128
   2021,   4.42381668,   15.3557396
   2022,   -8.1757431,   7.49823284
   2023,   4.83255291,    8.0134325
   2024,   13.6208878,   4.95175171
   2025,  -16.8210907,  -7.03296852
   2026,   12.3939371,  -5.66533756
   2027, -0.914347708,   17.3286171
   2028,  -5.84404373,   10.0448818
   2029,  -3.65928102,  -9.61607361
   2030,   6.70049286,   10.9674969
   2031,   9.26537991,  -1.55055094
   2032,  0.852936387,   12.3436937
   2033,  -18.4033451,  -5.46469736
   2034,   13.5059757,   9.90187168
   2035,  -17.2477932,  -3.72076416
   2036,  -6.49638844,   13.0309849
   2037,   10.1039495,   2.54293609
   2038,  -7.44073629,    3.2660687
   2039,   -5.9736867,  -8.99790764
   2040,  -7.50339031,   -7.6801753
   2041,   5.16192818,   11.8556929
   2042,  -10.2986307,   9.37460327
   2043,   -1.6723994,  -15.0005798
   2044, -0.816377699,  -13.8239393
   2045,   3.60419965,   16.7630501
   2046,  -9.10947704,  -4.45609474
   2047,  -15.9615078,  -5.93743086
   2048,   13.9856195,    6.3755827
   2049,   -12.087966,   7.93333483
   2050,   9.77969742,   9.62461376
   2051,   11.1945839,   8.76681042
   2052,  -19.2248135,   6.93444872
   2053,  -20.5519085,   5.61431265
   2054,   10.8818235,  -6.71769238
   2055,  -17.2770958,   6.53012371
   2056,  -1.23783052,  -12.6138229
   2057,   9.11347198,  -9.56807518
   2058,    16.267271,   9.26389027
   2059,  0.610848665,   -9.3885088
   2060,  -19.7719421,   4.76140213
   2061, -0.625988424,  -8.46681309
   2062,  -9.14555931,   6.71057177
   2063,  0.840739608,   -10.201973
   2064,     1.539814,   20.0116844
   2065,    13.018178,   5.22300625
   2066,  -14.3878574,   5.17805862
   2067,   3.31521082,   18.8228722
   2068,  -17.7941761,   8.13093758
   2069,    2.4303081,   14.3140202
   2070,  0.862262011,   14.9187479
   2071,  -5.15498447,  -9.73071957
   2072,    -10.34132,   3.40182376
   2073,  -14.8557453,  -3.24339938
   2074,   12.1534491,  -6.83319855
   2075,  -17.9935284,   4.83237267
   2076,  -12.3068647,   3.37784028
   2077,  -12.2456226,  -3.37794924
   2078,  -10.4988394,  -3.49219251
   2079,   15.2801561,   9.74399281
   2080,  -18.3080845,  -6.25312376
   2081,   10.5271244,   5.06635189
   2082,  -16.8466568,  -13.1937284
   2083,   1.32345533,   16.7040749
   2084,  0.225337088,  -11.0398588
   2085,  -6.93589783,   9.13501644
   2086,  -17.1084538,   4.91682577
   2087,  -14.2170706,   3.32593322
   2088,   14.9696083,   2.14996028
   2089,    -2.721524,  -9.55088329
   2090,   17.8863125,  -8.38183784
   2091,   -8.4044857,   3.33962417
   2092,  -16.5337658,  -3.47110558
   2093,   -9.4895134,   4.46039104
   2094,   3.57133746,  -12.7539759
   2095,  -7.18311977,  -6.17950344
   2096,  -18.1733456,   9.15283394
   2097,   -17.614193,  -7.70226908
   2098,   -12.541007,   5.26455641
   2099,  -1.20367682,  -10.5756245
   2100,  -8.18134975,   -10.251091
   2101,   4.29234457,   9.24583912
   2102,  -3.12950039,   11.6586905
   2103,   15.6083441,   3.09314704
   2104,   1.29099512,   21.9419136
   2105,   12.6668835,  -7.39550447
   2106,  -3.94099498,   11.6639776
   2107,   10.5747156,  -1.24045849
   2108,   14.2437687,   7.44222832
   2109,  -4.68679953,   12.2286129
   2110,  -15.3967409,   5.97028017
   2111,  -1.66954994,   -13.432044
   2112,   1.11198103,   19.1928425
   2113,  -5.29034853,  -8.80698872
   2114,  -1.12005413,  -16.8222275
   2115,   18.6713943,  -9.00329113
   2116,   10.2408304,   -7.7739687
   2117,  -19.6957092,   5.51255751
   2118,  -7.00270176,  -8.85768604
   2119,  -7.25916767,   12.5871258
   2120,   10.4061871,   3.58416533
   2121,   4.68294048,   12.4387665
   2122,   2.15909505,   13.4532404
   2123, -0.562483847,  -13.0760336
   2124,  -9.63544083,   9.53151417
   2125,  -4.58766079,    10.603075
   2126,  -13.2698307,  -4.25464773
   2127,  -4.43960524,  -9.63197517
   2128, -0.151144236,  -9.51192284
   2129,   12.7276907,   9.57520294
   2130,  -17.7488995,  -4.03201246
   2131,   3.74803925,    15.610014
   2132,   3.81122422,   18.0926228
   2133,   12.2411423,   5.73410606
   2134,   9.79357147,    4.2213273
   2135,  -19.7737789,   7.93542051
   2136,  -15.1731014,  -5.60220289
   2137,  -18.0684547,   5.63438559
   2138,  0.958781004,  -11.0199776
   2139, -0.687230587,  -11.8325653
   2140,   5.49084139,   10.3783131
   2141,   2.28479624,   20.0851688
   2142,  0.625346899,    17.784214
   2143,   1.12177777,   15.7998352
   2144,   -9.3734951,   3.39116287
   2145,  -15.5853062,  -4.17478704
   2146,   14.5162735,    9.3990097
   2147,  -11.3217497,   3.39099932
   2148,  -9.59631157,   5.69963694
   2149, -0.770105362,  -9.90983963
   2150,  -13.2676964,   3.34959459
   2151,  -13.3635302,   4.28849602
   2152,  -11.7961168,   6.26305914
   2153,  0.836079299,   18.6294556
   2154,   5.39433956,   9.77025795
   2155,   12.8883495,   8.70184708
   2156,   9.21581459,   8.93902588
   2157,  -10.5304527,   7.50523186
   2158,   10.7542105,    7.8149333
   2159,  -18.3032417,   6.52943182
   2160,   1.09691727,   12.9869776
   2161,  -4.54076099,   11.3119564
   2162,   13.4647484,   5.86081696
   2163,   15.4893045,   8.96985912
   2164,  -0.15422757,   18.0384693
   2165,   13.9667397,   8.20696068
   2166,   7.57938957,   10.5893583
   2167,  -7.59705925,   11.1443663
   2168,  -5.91044474,   11.2877636
   2169,   7.96717501,   4.97685862
   2170,   6.71445751,   7.38503504
   2171,  -8.62435913,   9.67183495
   2172,   11.3102398,   -7.5703373
   2173,  -17.5147686,  -6.76551342
   2174,  -16.8782578,  -5.33974886
   2175,  -9.74189758,   6.99302864
   2176,    13.463068,   7.04740286
   2177,   2.70834231,   15.1897144
   2178,    9.8066721,   3.42060018
   2179,  -13.1320667,  -3.30647802
   2180,   9.21226597,   9.90416145
   2181,  -11.2198181,    7.2939477
   2182,   8.45468616,   4.97709322
   2183,   10.2382689,  -8.70437908
   2184,   2.48647881,   18.2246723
   2185,  -14.3448534,  -5.10471249
   2186,  -16.1440449,  -5.16633749
   2187,   -9.8068819,   7.68987799
   2188,  0.584901035,    14.076314
   2189,   5.04843092,   10.7424488
   2190,   9.81444073,   5.03869772
   2191,   1.39762771,   17.5831032
   2192,   7.72330713,    5.3975749
   2193,  -11.5999222,    5.3276825
   2194,   11.9182615,   7.34326172
   2195,  -1.36486685,  -9.24454403
   2196,   7.18914747,   5.97882557
   2197,  -6.81144142,   11.7379456
   2198,  -8.26546955,    10.234786
   2199,   8.63703918,   9.52109909
   2200,  -13.9979286,  -3.24923468
   2201,  -10.9607649,   6.40655231
   2202,   7.68597031,   4.42017603
   2203,   7.38335323,   9.52027225
   2204,   5.63685799,    11.267889
   2205,   10.0432596,   6.88688517
   2206,  -16.2045479,   5.00157642
   2207,   3.11874318,   20.9748764
   2208,   -15.290287,   5.08804083
   2209,   7.19621038,   8.23178959
   2210,  -15.4382772,  -4.94395256
   2211,  -17.7027302,   -4.6760416
   2212,   11.8877811,  -9.15816689
   2213,   1.94288719,   15.5489607
   2214,    11.193141,   6.23396158
   2215,   -9.0352354,   8.79022503
   2216,  -5.34665966,   10.8919535
   2217,   9.27898502,   7.72344446
   2218,   9.09926128,   5.80822515
   2219,  -14.0813808,  -4.15160084
   2220,   12.4888372,  -8.94780731
   2221,   6.63844824,   5.80328083
   2222,   7.69659472,   6.03376245
   2223,  -9.02161598,   7.68379498
   2224,    -14.86234,  -4.71577835
   2225,   4.90009212,   20.9776917
   2226,  -7.80215645,   9.33275795
   2227,   8.26115513,   6.24082041
   2228,   9.10768414,   4.99928713
   2229,  -10.6409883,   5.44964933
   2230,  -13.7888117,  -6.06861639
   2231, -0.358634919,  -10.3863764
   2232,   1.60048544,   18.3971844
   2233,  -13.0297079,  -6.32981682
   2234,  -11.4429283,    4.3663702
   2235,  -23.2829418,   6.03340006
   2236,  -21.1970024,   11.3419962
   2237,   4.90592337,   23.6545715
   2238,   5.86451387,   23.4990768
   2239,   6.81288433,   23.3301506
   2240,  -21.0463219,  -11.5105085
   2241, 0.0170785282,   1.25766897
   2242,  -16.8024845,  -2.52902555
   2243,  -22.1263409,   6.74696445
   2244,  -19.4027901,   12.5781012
   2245,  -15.9665956,   16.7430916
   2246,  -8.17244339,   21.6437893
   2247,   2.10208297,   22.9506912
   2248, -0.635516703,  -2.64092302
   2249,    0.6229285,    1.7763387
   2250,  -5.42075253,   2.24979591
   2251,  -15.8272142,    -17.01758
   2252,  -17.0016174,   2.31529975
   2253,    1.6539458,   2.25479388
   2254,  -20.2784004,   9.01037407
   2255,  -17.6366367,   13.5888968
   2256,  -16.4898586,   14.8404331
   2257,  -10.9985428,   19.1520844
   2258,  -7.26889849,   21.1639633
   2259,   1.82320225, -0.212214455
   2260,   1.78613615,  0.125113666
   2261,  -6.07622337,  -21.0519886
   2262,  0.407233983,   -22.968914
   2263,    9.6764822,  -21.0152702
   2264, -0.765776515,   4.18833876
   2265,   13.5084925,  -18.7711563
   2266,   21.7110081,  -8.39368057
   2267,   21.0743275,  -6.14874697
   2268,   22.8281231,   3.13391995
   2269,   11.2442713,   20.2549057
   2270,   7.71498728,   21.6319046
   2271,   3.07293606,   21.9549923
   2272,  -5.08661795,   21.7037067
   2273,  -15.7188234,   -3.3118403
   2274,  -6.71768427,  -3.31856728
   2275,   1.79132903,   0.43572706
   2276,  -19.5557175,  -10.4251108
   2277,  -19.9553108,  -9.68994808
   2278,   6.76323318,   21.8667564
   2279,  -4.76035166,   3.15701914
   2280,  -7.38470888,   20.1198101
   2281,  -18.4345112,    -4.628757
   2282,  -21.1837177,   -7.3906312
   2283,   2.13499951,   -0.1220043
   2284,   2.20882797,  0.176341638
   2285,  -17.3611927,   12.4660978
   2286,   -13.517642,   16.4082031
   2287,  -0.68972373,   20.2784595
   2288,   1.69447875,   3.51939702
   2289, -0.350625634,   4.82983589
   2290,  -0.83519417,   5.31087112
   2291,   2.23569512,   20.9915905
   2292,  -10.7064285,  -4.19251966
   2293,  -6.48520947,  -4.21918058
   2294,   16.5307865,    12.803299
   2295,  -18.9840279,  -9.99161148
   2296,   2.65097165,  -3.24578524
   2297,      3.26984,     3.127177
   2298,  -17.2513123,   -14.023406
   2299,  -4.95364332,    4.0648222
   2300,  -7.58730984,  -21.0753613
   2301,   19.1227932,   11.4344959
   2302,   19.4547386,   10.7988119
   2303,   10.7082005,     19.56674
   2304,  -7.52290821,   4.24877453
   2305,   21.2143345,   -7.6771946
   2306,   12.5919361,   -18.562376
   2307,  -8.84160423,  -20.5101986
   2308,   20.6016254,  -8.90608692
   2309,   -9.2214613,  -5.54093552
   2310,  -1.68478978,   5.20409393
   2311,   16.2826271,   15.0645571
   2312,   20.2629833,    9.2273016
   2313,    18.854866,  -11.8477726
   2314,  -3.67272401,   20.7637711
   2315,   4.02431488,  0.494499236
   2316,  -10.8066559,  -5.18116236
   2317,   17.7857914,  -13.2611275
   2318,  -17.6357422,  -5.41519642
   2319,  -18.9161243,   7.65582943
   2320,  -14.7820902,  -16.9446011
   2321,   21.5156822,    7.3815279
   2322,  -16.4294014,   12.7099838
   2323,   2.91457748, -0.431420296
   2324,   3.38262653, -0.515673578
   2325,   3.79160762,  -21.8896084
   2326,   3.00202012,  -22.0316277
   2327,  0.502170205,  -21.9041805
   2328,  -16.6221542,  -12.6340294
   2329,  -4.38048887,   4.96814251
   2330,  -6.23476934,  -5.09155846
   2331,  -4.73443985,  -4.91369772
   2332,    0.9793365,  -5.17617226
   2333,   1.44024777,  -4.40775347
   2334,   15.1863155,   15.1880083
   2335,   3.89849877,  -1.17719901
   2336,  -18.8458195,  -7.87386322
   2337,  -3.82342577,  -20.5853405
   2338,   1.90251958,   3.88353992
   2339,    1.7344557,   4.22634697
   2340,   3.08963275,   20.0326424
   2341,   15.7132759,   11.7381697
   2342,   20.2635326,  -7.83571625
   2343,  -17.0125027,  -4.53552294
   2344,  -6.64485598,   5.12432671
   2345,   18.7070179,   11.0314865
   2346,   18.7737923,   10.5012808
   2347,   18.7853107,    9.7909174
   2348,   10.8562965,   18.7361584
   2349,   15.6853809,   14.8148632
   2350,   20.8555431,  -2.57784176
   2351,   -18.868721,   4.75957298
   2352,   -18.905262,     6.071455
   2353,   -21.195343,  -5.79454374
   2354,  -18.0820103,   7.37950039
   2355,   7.44276237,  -19.5708809
   2356,   6.83927393,  -19.4440937
   2357,   18.5619831,   -10.725811
   2358,   1.70915163,   4.67893887
   2359,   2.12626982,   4.85612583
   2360,   2.16375494,   4.36925602
   2361,   2.00238419,   -4.1700716
   2362,  -17.5620651,  -6.14498377
   2363,   -15.866641,   12.9516401
   2364,   20.2862396,  -3.78950143
   2365,  -14.7583895,   14.6092405
   2366,   2.39276671,  -4.72314024
   2367,   5.17758322,   1.15861142
   2368,   4.57235193,  0.402743042
   2369,  -10.7329254,  -18.6150799
   2370,  -11.3658533,  -18.0957794
   2371,   2.90084195,   19.3334503
   2372,   1.66473567,   19.1976719
   2373,   8.45326805,  -16.0585098
   2374,   17.6787338,   -5.5301404
   2375,   18.1147022,   10.4276409
   2376,  -11.3535681,  -5.86344385
   2377,  -10.3037014,  -6.98425817
   2378,   10.8071241,   16.0380535
   2379,   7.70448351,   18.5060577
   2380,   1.97557008,  -5.67330456
   2381,   4.43046618,  -1.88945329
   2382,  -2.15107751,   5.57070589
   2383,  -2.31922078,   5.16087246
   2384,  -5.08730268,  -18.2923927
   2385,   4.26653957,  -20.9333534
   2386,   15.0823832,    10.591527
   2387,  -2.77506471,   18.8189468
   2388,   18.2954464,  -7.33979845
   2389,  -9.18300247,  -7.41507483
   2390,  -8.36223602,  -7.41712189
   2391,    3.4907465,  -5.05712509
   2392,   18.7589245,    9.0245676
   2393,  -9.16744137,  -18.5490532
   2394,  -2.81768608,  -21.2341499
   2395,  -2.30881596,  -20.8795071
   2396,  -9.80944538,   -18.363451
   2397,     2.747051,   4.13720942
   2398,   2.51592183,   4.44616413
   2399,   10.2168064,   18.0334263
   2400,   6.63846111,  -18.7908421
   2401,  -10.8949318,  -17.4301224
   2402,   16.0300674,   10.0742435
   2403,   16.7021351,   10.3899927
   2404,  -6.59604931,   6.10999155
   2405,   -13.053236,  -14.6931086
   2406,  -17.0530319,   4.07255125
   2407,  -2.54901552,    6.3638773
   2408,  -13.5786753,  -14.2801361
   2409,   2.74721098,   5.49811316
   2410,    3.0714829,   17.4215431
   2411,   21.0128002,   2.20572782
   2412,   19.6649742,  -3.81513786
   2413,  -17.2511559,   7.26579142
   2414,  -16.5307465,   8.22160149
   2415,   -14.561986,  -11.9088135
   2416,  -9.73913002,   -8.4309473
   2417,   -7.7179184,  -8.54187107
   2418,  0.476282775,   16.9028378
   2419,   18.9410458,   8.27620411
   2420,   19.5385628,   5.72739887
   2421,   5.95491886,   0.79036653
   2422,   6.38657761,  0.954815209
   2423,  -10.6828566,  -8.12910652
   2424,  -12.2876387,  -6.13416433
   2425,  -14.3055677,  -5.82638502
   2426,  -12.6762161,    6.1940856
   2427,   9.96434784,     16.38974
   2428,   1.64961267,  -20.5166264
   2429,  -3.33966947,  -6.95811033
   2430,  -2.49113202,  -7.28212738
   2431,   4.72758102,  -2.57180071
   2432,   5.42143965, -0.971865177
   2433,   10.2597151,   15.9606123
   2434,   13.8848124,   14.1053324
   2435,   16.4214916,  -6.81945133
   2436,  -4.31882048,   6.55243874
   2437,  -17.1967793,   5.73360157
   2438,   9.38310528,   -15.164794
   2439,   16.3521271,  -5.61509371
   2440,   20.0588703,  -2.28282738
   2441,  -15.3495874,  -8.20700455
   2442,   6.41555548,  -15.7847452
   2443,   14.0978546,   11.1007442
   2444,   4.30996895,   17.2921982
   2445,  -6.53000164,  -6.97198725
   2446,  -16.1784077,  -8.42443371
   2447,    10.309761,   18.8365269
   2448,   17.6379375,  -9.31269836
   2449,   14.6326914,  -14.4304714
   2450,  -16.4207973,  -7.71826077
   2451,  -9.63568783,  -17.8656559
   2452,   5.48994875,  0.741550446
   2453,   9.44659996,   15.8393173
   2454,  -10.5304813,   16.2438354
   2455,   4.02331114,   -20.429657
   2456,   16.6073265,  -10.4613829
   2457,  -2.30344939,  -19.7143593
   2458,  -10.3828745,  -16.8806057
   2459,  -11.8111563,  -14.7348223
   2460,    19.483757,  -1.46743643
   2461,  -6.64221001,  -15.8583698
   2462,  -16.5108261,   7.34342098
   2463,   19.0129585,  -2.28549647
   2464,   18.2772655,  -2.60868907
   2465,   -13.964798,    14.290308
   2466,   2.01314187,   -19.334837
   2467,  -13.5053215,  -13.6129427
   2468,   4.89146519,  -6.20160818
   2469,  -14.4564514,  -6.96117926
   2470,  0.548805892,   -18.234581
   2471,   16.5922985,  -7.73524761
   2472,   -11.346242,  -8.66027451
   2473,  -10.9332304,  -9.16704559
   2474,   9.21659184,  -14.2283373
   2475,   7.21461725,   17.1803761
   2476,  -9.46841431,  -17.1294575
   2477,  -2.08466983,   -8.6502676
   2478,  -4.57053995,  -7.58543777
   2479,  -9.06766701,  -8.88755417
   2480,   6.79821634,  0.642685592
   2481,   3.65363479,  -19.6884613
   2482,   4.33279943,  -18.7365341
   2483,   3.97170329,   6.59038782
   2484,   3.49140954,   6.84298468
   2485, -0.450302809,   9.10517406
   2486,  -5.47063494,   7.80894423
   2487,   10.9478226,   10.1101122
   2488,  -5.55999565,   14.7083864
   2489,  -2.66412306,   14.9854145
   2490,   -1.8558439,   14.8567028
   2491, -0.822192907,   15.4956379
   2492,   -5.5836401,  -15.7236509
   2493,   13.7238884,   9.04572773
   2494,   3.06920552,   16.0507355
   2495,   2.03671765,   17.4821739
   2496,  -14.4543762,    -7.903409
   2497,   4.02215195,   16.2387352
   2498,   6.09203482,    16.967638
   2499,   18.4963055,   7.33177805
   2500,   18.8580475,   4.64149904
   2501,  -12.6969671,  -11.0548649
   2502,   12.4898434,   11.2705002
   2503,  -1.92347002,  -18.9466038
   2504,   6.61623573,  -5.92585278
   2505,   5.95607233,  -4.47649097
   2506,   5.65657663,  -4.02356482
   2507,   9.15106773,   11.4257851
   2508,  0.408511758,  -8.55600834
   2509,  -2.69574785,   9.05943298
   2510,   3.45781803,   14.8435812
   2511,  -15.8685322,   7.33792162
   2512,   16.3595161,   8.34657669
   2513,  -10.0626736,  -9.38641357
   2514,   1.20470703,  -8.57944202
   2515,  -10.1652269,   15.4578362
   2516,  -12.7377224,  -8.25170612
   2517,   20.3294353, -0.141672775
   2518,  -3.65548491,   6.96829653
   2519,   18.7089157,   -1.5727843
   2520,   4.28346157,  -17.4759197
   2521,  -10.2186003,   -15.789237
   2522,  -9.29973221,  -16.1941032
   2523,   6.37073421,  -3.49245667
   2524,    -2.080827,   9.30155373
   2525,   4.35336781,   7.24046278
   2526,   6.93342972,   16.4045982
   2527,  -13.6731796,  -7.07899857
   2528,   7.06596947,  -1.72523427
   2529,   20.0344772,   2.11941695
   2530,   2.93411136,  -19.4319115
   2531,   8.20524883,  0.975348175
   2532,   5.26354313,   -3.5808804
   2533,  -9.96788406,   8.52861023
   2534,   1.66482401,  -17.8871174
   2535,  0.509501994,  -17.1889286
   2536,  -4.52116013,  -15.4689522
   2537,  -5.86164713,   -14.480092
   2538,  -12.8024788,   7.97127676
   2539,   6.57944632,   6.55908346
   2540,   5.22271299,   8.93685055
   2541,  -1.90885234,  -10.0657644
   2542,  -2.18169475,  -16.0375862
   2543,  -12.2083883,  -8.52491951
   2544,  -11.3646631,  -9.79205704
   2545,  -12.1343584,   -11.859848
   2546,   6.31482124,   16.1505394
   2547,  -10.5488787,  -9.54623604
   2548,   2.48422861,  -8.10360718
   2549,   4.38794994,  -7.16312456
   2550,  -2.02332139,   14.0123825
   2551,  -1.24752057,   13.8016167
   2552,   6.97657776,   10.1834145
   2553,   8.23195934,   0.31064254
   2554,   13.0702381,   7.82025099
   2555,    5.7059269,  -14.6649227
   2556,   4.71483088,  -16.8270626
   2557,  -6.04629993,   8.98356724
   2558,  -5.80225563,   13.5229931
   2559,    14.038969,  -8.49499607
   2560,  -6.94495583,   -14.599102
   2561,   8.30956078,   4.23034286
   2562, -0.516039371,  -10.9643602
   2563,  -10.8393545,   15.0607405
   2564,  -6.48586559,  -9.21499634
   2565,  -10.4771318,   14.5133657
   2566,   -7.6272831,  -15.9174166
   2567,   12.6450539,  -12.4574862
   2568,   5.00209141,    14.285614
   2569,   3.94859695,   13.7811947
   2570, -0.211454868,   14.3651114
   2571,  -8.37138367,  -15.9274521
   2572,   14.4297352,   6.83543205
   2573,   5.87592077,   15.0809288
   2574,   8.96317291,  0.998517871
   2575,   15.5904799,  -3.77799392
   2576,  -14.2115602,   8.91679001
   2577,  -10.7754622,   13.8843384
   2578,  -2.84917307,   9.94229317
   2579,   1.37362885,   13.7804604
   2580,   1.26068592,  -16.6650486
   2581,  -10.9874392,  -11.9159107
   2582,   1.71972048,  -11.0032873
   2583,   -2.2831707,  -10.9328022
   2584,   17.2914314,   4.24272585
   2585,   14.6255207,   5.93555498
   2586,   7.27031946,   5.52055168
   2587,   7.18300581,   6.56297159
   2588,   7.43204832,   7.15302563
   2589,   7.92964935,   7.75552368
   2590,   13.2397251,  -8.73192692
   2591,  -5.85222626,  -9.82387829
   2592,   8.25242805,  -1.70088577
   2593,  -11.0236082,   9.12227726
   2594,  -12.1346617,   9.43821812
   2595,   5.26743937,  -13.1462688
   2596,   4.05305767,   -16.471302
   2597,  -2.20756578,   13.2146244
   2598,  -4.20950842,  -14.6905899
   2599,  -4.84169579,  -14.3629503
   2600,   14.8009634,  -9.08235741
   2601,   6.19313049,    9.8144989
   2602,   7.92139387,     8.933424
   2603,   4.64473581,   10.0553999
   2604,   4.66068697,  -7.84696484
   2605,   6.69522619,  -7.50400734
   2606,   2.23238754,  -9.16315842
   2607,   8.08644772,  -12.6724644
   2608,  -7.49770975,  -11.2551861
   2609,  -8.03136063,  -14.8117189
   2610, -0.753229499,   12.6914244
   2611,  -5.26874304,   12.8209391
   2612,  -6.84845781,   9.99314213
   2613,   2.79175782,   10.1374283
   2614,    1.6196208,  -14.5803051
   2615,  -6.54004669,  -9.83140564
   2616,  -6.60415649,  -10.6043053
   2617,   13.1939583,  -11.8520947
   2618,   19.5346985,   1.25951934
   2619,  -7.63469267,   10.1610184
   2620,   4.46796703,   11.2512636
   2621,  -8.92977428,  -15.3192368
   2622,  -9.85100079,    -12.81567
   2623,   9.88435936,   1.64884126
   2624,   7.60331345,    6.4648509
   2625,   7.96375465,   6.78026819
   2626,   8.55572224,   7.20749807
   2627,   8.55734253, -0.893248737
   2628,   13.4016237,  -10.5087881
   2629,   1.66343892,   9.83285713
   2630,   8.85492039,   -2.0292809
   2631,  0.235725194,    -11.79772
   2632,   4.37128639,   12.9491644
   2633,  -5.11361933,  -10.5649338
   2634,  -3.02028012,   10.7861872
   2635,   2.65981793,  -16.7524509
   2636,   3.51664305,  -16.0907459
   2637,   3.92565084,   -14.811388
   2638,   8.65798664,  -3.72431135
   2639,   9.30024338,  -7.68647575
   2640,   16.8476505,   3.46924138
   2641,  -2.77585506,   -14.481595
   2642,  -3.29567504,  -14.1958275
   2643,  -4.54106236,  -13.8257456
   2644,  -4.87784624,  -13.2969742
   2645,   12.6344032,  -9.61818409
   2646,  -2.62311363,  -11.7579813
   2647,   -1.9275353,  -12.1444464
   2648,    7.3832984,  -8.40330601
   2649,   9.20055676,  -11.8968105
   2650,   4.36096334,  -12.1005621
   2651,   2.51423383,  -13.6825371
   2652,  -2.38391495,   12.4560785
   2653,  -6.92135429,  -12.0356598
   2654,  -1.62015331,  -14.1238699
   2655,  -5.10774469,   11.6573725
   2656,  -4.30196619,     12.73736
   2657,   8.47336197,  -12.0621233
   2658,   12.0433636,  -11.7366524
   2659,  -8.49596214,  -13.7041817
   2660,    10.712512,   1.41065669
   2661,   11.5616007,   2.75199604
   2662,  -6.38617945,   10.9725065
   2663,  -6.90842581,   10.7078743
   2664,   10.5044889,   5.74496174
   2665,   2.69278526,  -16.0261898
   2666,  -9.07800961,  -12.7523966
   2667,   10.9430475,  -11.7550917
   2668,  -1.96812868,   11.7709436
   2669,   12.0637293,  -7.80761147
   2670,    12.110487,   -10.540863
   2671,   4.35393429,  -8.61164951
   2672,   8.98309517,   6.54127026
   2673,   3.41429853,  -9.55772495
   2674,   14.1090736,   5.35364532
   2675,   14.8069096,  -1.45046151
   2676,   16.8483543,  0.945519567
   2677,  -4.44233799,  -12.1026096
   2678,   -8.8759613,   11.7676888
   2679,   11.2575865,   3.76066923
   2680,   1.30980706,   10.8504496
   2681,  -9.05992317,  -13.3769951
   2682,   10.5483704,   0.63295114
   2683,  0.295941114,   -12.557415
   2684,   1.01614904,   -12.648838
   2685,   11.2122679,   5.19365358
   2686,    11.954546,   4.94541311
   2687,  -3.74649477,  -12.8024845
   2688,  -2.01292825,  -14.4009962
   2689,   8.25179482,  -10.4717569
   2690,  -3.61239386,  -12.2184038
   2691,   3.12282705,  -15.3149424
   2692,   3.32281804,  -13.7865877
   2693,   4.58355522,  -10.8828154
   2694,   16.9621181,   2.45202851
   2695,   3.44154119,  -10.7014265
   2696,  -2.83398294,  -13.5166864
   2697,   9.08002567,   -10.357378
   2698,   9.00639057,  -10.8657942
   2699,   11.6167374,   4.31794739
   2700,   12.1093407,   4.02245378
   2701,    14.963275, -0.672449946
   2702,  -4.42272091,  -11.0605803
   2703,   14.9970646,   3.56253743
   2704,   13.7435389,  -1.82052588
   2705,   3.10338306,  -15.8112078
   2706,   11.4368849,  -0.15595825
   2707,   10.3893728,   -6.0451746
   2708,     9.757411,  -4.59188747
   2709,    16.016798,   1.90343249
   2710,   10.8167543,  -2.64996862
   2711,   11.3218727,  -2.12621546
   2712,   14.0068989,  -1.22539365
   2713,    12.902256,  -2.07524157
   2714,   14.5250635,   3.95395803
   2715,   5.54213238,  -9.42220592
   2716,   13.7007217,   4.38859844
   2717,    13.280489, -0.526372731
   2718,   12.0088511,   -1.7289983
   2719,   14.0647593,  0.995627582
   2720,   15.0071516,   1.08371973
*Element, type=CPE4R
   1,  753,  494,  495,  733
   2,  665,   72,  611,  698
   3,  666,   73,  612,  699
   4,  667,   74,  613,  700
   5,  668,   75,  614,  701
   6,  669,   76,  615,  702
   7,  704,  617,  616,  703
   8,  618,  705,  671,   78
   9,  619,  706,  672,   79
  10,  620,  707,  673,   80
  11,  674,   81,  621,  708
  12,  664,  628,   70,  622
  13,  635,  626,  628,  979
  14,  623,   67,  626,  630
  15,   68,   67,  623,  629
  16,  105,  673,  707,  811
  17, 1092, 1933, 1039,  126
  18,  149, 1517, 1549, 1978
  19,  172, 1523, 1984, 2514
  20, 1728, 2695, 1737, 1937
  21, 1727,  212, 1738, 1812
  22, 2373, 1771, 1793, 1805
  23, 1104, 1052,  241, 1910
  24,  904,  822,  934,  267
  25,  529,  792,  721,   18
  26,  721,  792, 2265,  814
  27,  865,  764,  827, 1028
  28,  239, 1028,  827, 1148
  29,  710,   20,  533,  738
  30, 1843, 1060,  236,  823
  31, 1814,  195, 1817, 2456
  32, 1800, 1801, 2617, 1794
  33, 1488, 1518, 1467, 1466
  34, 1080, 1123, 1034, 2381
  35,  875,  649,  804,  923
  36,  624,   69,   68,  629
  37, 2138, 2084, 2631, 1950
  38, 1598, 2651, 1848,  210
  39, 1552, 1806, 1836, 1535
  40, 1450, 1420,  266, 1477
  41, 1032,  904,  267, 1033
  42,  822,  527,  528,  282
  43,  527,  822,  717,   17
  44, 1092, 2331, 1137, 1173
  45, 1187, 2429, 1200, 1173
  46, 2128, 2061, 2195, 2149
  47, 1986, 2059, 2063,  190
  48,  188, 2089, 2029, 1911
  49, 2056, 2139, 1908, 2647
  50, 1634, 1598,  210, 2684
  51, 2691, 1481, 2665, 2705
  52, 1599,  244, 1635, 1648
  53, 2356, 2355, 1420, 2400
  54,  650,  525,  526,  790
  55,  290,   16,  525,  650
  56,  281,  790,  717, 2263
  57,  709,  511,    9,  797
  58,    8, 1846,  759,  509
  59, 1428, 1533, 1516, 1374
  60,  737,  817, 2251,  799
  61,  713,    6,  506,  864
  62, 1335,  200, 1434, 1395
  63,  503,  719,  199,  502
  64,  500,  735,  793,    3
  65,  774,  499,    3,  793
  66,  496,  757,  728,    1
  67,   82,  836,  728,  757
  68,  675,   71,  610,  753
  69,  799, 2251,  962,  864
  70,  508,  255,  737,    7
  71, 1973, 1533,  759, 1846
  72,  510,  270, 1846,    8
  73,  797,    9,  512,  720
  74,  781,  513,   10,  724
  75, 1045,  283, 1117, 1110
  76,  881,  284,  846,  952
  77,  275,  985, 2394, 2395
  78,  905, 2327, 2262,  839
  79,  970,  277, 1007,  905
  80, 1273, 1116,  852, 1244
  81, 1276, 1272,  290, 1236
  82, 1236,  280, 1340, 1276
  83, 2481, 1343, 2455, 1391
  84, 2530, 2481,  264, 1351
  85, 2466, 1017, 2428, 1040
  86,  276, 1341, 1278, 1097
  87, 1318, 1332, 1274, 1243
  88, 1046, 1019,  274, 1170
  89,  972,  273, 1059, 1171
  90, 1196, 2307, 1286, 1323
  91, 1358,  257, 2369, 1415
  92,  270,  709,  871, 1887
  93,  724,   10,  514, 1071
  94, 1110, 1117,  725,  284
  95,  786,  725,  516,  517
  96,   13,  746,  745,  518
  97,  746,  743, 2262,  286
  98,  520,  741,  743,  519
  99,   14,  761,  741,  520
 100,  779, 1008,  287,  761
 101,  523,  289,  740,   15
 102,  289,  523,  524, 1272
 103,  823,  738,  237, 1843
 104,  535,  714,  868,   21
 105, 1828, 1061, 1824, 1826
 106,  195, 1814, 1811, 1807
 107, 2669, 2105, 2074, 2172
 108, 2054, 1947, 1627, 2707
 109, 1469, 2638, 1487, 1556
 110, 1190, 2627,   92, 1159
 111,  991, 2368, 1026, 1084
 112, 1124, 1078,  303, 1128
 113, 1192, 1216, 1095, 1161
 114, 1366, 1407, 1313,  347
 115,  371, 2509, 1526, 1563
 116, 2161, 2106, 2109, 2655
 117, 1944, 2119, 2036, 1955
 118, 1497, 1347, 1476, 1451
 119, 1860, 1876, 2003, 1290
 120,  580,  581,  651,  486
 121,   44,  580,  486,  794
 122,  581,   45,  791,  651
 123,   45,  582,  473,  791
 124,  802,  863,  583,   46
 125, 1142,  971,  982, 1328
 126, 1208, 1181, 1186,  438
 127,  417, 1409, 1602, 1565
 128, 1265, 2404, 1324, 1847
 129,  996,  326, 1053, 2329
 130,  326, 1165, 1139, 1053
 131,   66,   69,  625, 2241
 132,  624,  631,  625,   69
 133,  876,  647,  806,  924
 134, 1199,  325, 1212, 2383
 135, 1223, 1595, 2518,  349
 136, 1943, 1623, 2028, 2557
 137, 2167, 2008, 2678,  388
 138, 1475, 1412, 1496,  416
 139,  438, 1280, 1226, 1208
 140,  457, 1063,  936,  908
 141,  863,  802, 2245,  908
 142,  868,  714,  895,  933
 143,  218, 2313, 1061, 1828
 144,  950,  179, 2115,  999
 145, 1000,  179,  950, 2342
 146,  138, 1180, 1043,  977
 147,  115, 2463, 1174, 2440
 148, 1047, 1103, 1021, 2517
 149,  311, 1352, 1102, 1029
 150, 1352,  311, 2411, 2529
 151, 1462, 2420, 1513, 1544
 152,  360, 1435, 1378, 2321
 153,  903,  967, 2312,  401
 154, 1863,  903,  820,  402
 155,  553,  820,  763,   30
 156,  662,   31,  555,  712
 157,  712,  831,  912,  662
 158,  557,  775,  869,   32
 159,  918, 1229,  442, 1012
 160, 1240,  443, 1262, 2334
 161, 1292,  444, 1348, 1394
 162, 1485, 2453, 1489, 1510
 163,  428, 1489, 1522, 1568
 164, 1670, 2573, 1688, 1844
 165, 1670, 2021,  430, 2568
 166, 2070, 2143, 1956,  432
 167, 1691, 1898, 1662, 2491
 168, 1503, 1531, 1895,  451
 169, 1622, 1604, 1569, 1605
 170, 1668, 1654,  453, 1293
 171,  436, 1376, 1339, 1497
 172,  434, 1845, 1651, 1619
 173, 1651,  414, 1671, 1706
 174, 1665, 2610, 1690,  413
 175, 1699, 1679, 2610,  412
 176, 1952, 2069, 2122, 2015
 177, 1689, 1912, 1650, 2568
 178,  429, 1638, 1568, 1607
 179, 1570, 1539, 1573,  408
 180, 1446, 1453, 1421, 1410
 181, 1418, 2434, 1329,  425
 182, 1179, 1136, 2294, 1081
 183,  831,  937,  403,  939
 184,  423,  937,  831,  712
 185,  775,  872, 1153,  869
 186,  359,   29,  551,  788
 187, 1327, 1378,  337, 1297
 188, 1327, 1297,  336,  627
 189, 1297,  337, 1350, 1235
 190,  313, 1870, 1850, 2268
 191, 1050,  312, 1152, 1119
 192,  546,  755,  770,  545
 193,  117,  760,  768,  850
 194,  760,  117,  847,  771
 195,  139,   24,  541,  776
 196,  540,  736,  772,  539
 197, 2266,  772,  736,  818
 198,  716,  840,  198,  754
 199,  537,  754,  652,   22
 200,  180, 2308,  842, 2266
 201,  748,   83, 1141,  776
 202,   83,  748,  771,  847
 203,  762,   26,  545,  770
 204,   27,  766,  755,  546
 205, 1152,  766,  769, 2268
 206,  549,  336,  758,   28
 207,  627,  359,  653, 1327
 208, 1153, 1115,  423,  869
 209,  727,   33,  559,  749
 210,  907,  459,  938, 1056
 211,  941, 1057,  995,  460
 212, 1237, 1111, 2399, 1398
 213, 1881, 1076, 2475, 1151
 214,  463, 1150, 1120, 1020
 215, 2001,  464, 2132, 2444
 216, 2191, 2083,  449, 2495
 217, 1452, 1414, 1479, 2387
 218, 1298, 1345, 1392,  468
 219, 1082, 1177, 1380,  469
 220,  471, 1334, 1176, 1098
 221, 1290, 2003, 1334,  471
 222, 1176, 1295, 1135,  470
 223,  459,  907,  828,  749
 224,  561,  796,  867,   34
 225,  659,  474,  633, 2269
 226, 2303, 2447, 2348,  945
 227,  476,  888,  943, 1992
 228,  998,  463, 1020,  943
 229, 1920,  464, 1024, 1049
 230, 2112, 1989,  466, 2153
 231, 2287, 1455,  466, 1896
 232, 2314, 1478, 1456, 1903
 233, 1882, 1143, 1344,  482
 234,  957, 2280,  889,  484
 235, 1002,  470, 1067,  957
 236,  910, 1164,  794,  486
 237,  867,  879,  938,  459
 238,  633,   35,  563,  661
 239,  945,  659, 2269, 2303
 240,  565,  722,  784,   36
 241,  798, 2239,  824,  722
 242,  567, 2238, 2239,   37
 243, 2238, 2237,  819,  487
 244,  732,  767,  568,  569
 245,   39,  570,  747,  750
 246, 2104, 1331, 1381,  479
 247, 1381, 1331, 1269,  480
 248,  965, 2271, 2207,  478
 249, 1006, 2247, 1072, 2271
 250,  901,  819,  488,  965
 251, 2270,  888,  476,  833
 252,  784,  833,  849,  729
 253, 2247, 1006,  732,  750
 254,  751,  752,  490, 1946
 255, 1270,  832,  491, 1304
 256, 1232,  490,  832, 1270
 257,  739,  744,  572,  573
 258,  492, 1371,  765,  730
 259, 1903, 1304, 1423, 2314
 260, 1270,  481, 1303, 1232
 261,  574,  575,  778,  730
 262, 1985, 2272, 1882,  482
 263, 1991, 1882, 2272, 1853
 264,  485,  838,  711,  789
 265,  789,  711,  578,  579
 266,  794,  789,  579,   44
 267,  742,  862,  584,  585
 268,  917,  795,  441,  988
 269,  421,  935,  830, 2244
 270,  419, 1542, 1512, 1438
 271,  385, 1632, 2576, 1659
 272, 2181, 1869, 2049,  353
 273, 1930,  351, 2062, 2148
 274, 1909, 2304, 2038, 1981
 275,  696,  677,  607,   64
 276,   64,  608,  676,  696
 277,  697,  676,  608,   65
 278,  860,  609,  663,  877
 279,   47,  586,  441,  795
 280,  911, 2244,  715,  422
 281, 1064,  992,  421,  940
 282,  385, 1581, 1586, 1632
 283, 2538, 1675, 1685, 1923
 284, 2426, 2152,  353, 1923
 285, 2144, 2093,  329, 2072
 286,  695,  686,  606,   63
 287,   63,  607,  677,  695
 288,  587,   48,  715,  787
 289,  911,  821,  902,  940
 290,  382,  964,  902,  821
 291, 1872, 2052, 1296,  357
 292, 2117, 2060, 2351,  356
 293,  599,   57,  689,  678
 294,  809,  678,  689,  292
 295,   57,  600,  679,  689
 296, 1291,  679,  690, 2252
 297, 1987, 2406, 2086, 2075
 298, 1988, 2462, 2413, 2055
 299, 1140, 1175, 1884,  384
 300, 1086,  420, 2285,  992
 301,  657,  656,  687,   84
 302,  597,   55,  687,  656
 303,   55,  598,  680,  687
 304,  688,  680,  598,   56
 305,  886,  954,  291,  809
 306,  997,  891,  954,  334
 307,  986,  953,  335,  997
 308, 2235,  632,  592,  593
 309,  655,  335,  953,  658
 310,  654,  655,  594,   53
 311,  655,  654, 1914,  335
 312,   58,  601,  681,  690
 313,  293,  681,  691, 1387
 314,  293, 1840, 1356, 2252
 315, 1831, 2110,  354, 1705
 316, 1724, 1705,  377, 1658
 317, 1658,  377, 2576, 1632
 318,   59,  602,  682,  691
 319,  682,  692, 1907,  294
 320,  331, 2087, 2150, 2151
 321,  354, 2066, 1913, 1723
 322,  354, 1723, 1685, 1705
 323,   60,  603,  683,  692
 324,  684,  683,  603,  604
 325,  330, 2076, 2147, 2234
 326, 2193, 2098,  330, 2234
 327,   61,  605,  685,  693
 328,  694,  685,  605,   62
 329, 2091, 2144, 1983,  297
 330,   62,  606,  686,  694
 331,   70,  628,  626,   67
 332,  979,  628,  664,  919
 333,  106,  930,  825,  674
 334,  706, 1288,  104,  672
 335,  103,  671,  705, 1386
 336,  102,  670,  704, 1906
 337,  101,  703,  669, 1948
 338,  100,  702,  668, 1982
 339,  701,  667, 2242,   99
 340,  700,  666,   98, 1994
 341,  699,  665,   97,  810
 342, 1029,   86,  961, 1005
 343,  311, 1050, 1119, 2411
 344,  898,  850,   85,  961
 345,  850,  898,  944,  117
 346,  878,  847,  117,  944
 347,  959,  139, 1042, 2267
 348,  959, 2267,  140,  890
 349, 1645, 1055, 1085,  399
 350, 2301, 2302, 1863,  912
 351, 1102, 1289, 1047, 2517
 352, 1289, 1353,   87, 1047
 353, 1609, 1575,   88, 2676
 354, 2719, 1740,   89, 2720
 355,   90, 1798, 1757, 1756
 356, 2574, 1368, 2623, 1980
 357, 1252, 1314, 1189, 1258
 358, 1156, 1218, 1189, 2480
 359, 1159, 1156, 2480,   93
 360, 1938, 2004, 2630,  110
 361, 2704,  112, 2713, 1704
 362,  114, 1656, 1643, 1615
 363, 1285, 1515, 1548, 2519
 364, 1021, 1103, 2460, 1146
 365, 1285,   87, 1385, 1515
 366, 1353, 1429, 1385,   87
 367, 1575, 1609, 2720,   89
 368, 1547,   88, 1575, 1610
 369,   89, 1740, 1721, 2701
 370, 1756, 1757, 1969, 2706
 371, 1756, 1746, 2717,   90
 372, 1258, 2531, 2574, 1980
 373, 2627, 1878, 1310,   92
 374, 1083, 1026, 1036, 2432
 375, 1016,  807,  645,  642
 376,  807,  921,  973,  874
 377, 1018,  129, 2296,  975
 378, 1247, 1213,  130, 1401
 379, 1402, 1443, 1491, 1405
 380, 2673, 1747, 2695,  191
 381, 1468, 1524, 2673, 1490
 382,  191, 1752, 1490, 2673
 383, 2695, 1728, 2693,  191
 384,  212, 1683, 1713, 1738
 385,  816,   97,  665,  698
 386, 1001, 1054, 1891,  119
 387, 1966, 2173, 2362, 2080
 388, 1482, 1459, 1508, 2501
 389, 1646,  224, 1664, 2459
 390, 2571, 1464, 2566,  225
 391, 1228, 1169, 1204, 1282
 392, 1266, 1227, 1160, 2384
 393,  261, 1363, 1332, 1318
 394,  260, 1354, 1266, 2384
 395, 1426, 1449, 1893,  227
 396,  208, 2696, 1833, 2111
 397, 1911, 1785, 1796,  188
 398, 1917,  169, 2127, 2029
 399,  168, 2039, 2113, 1855
 400, 1220,  152, 1855, 2478
 401, 2390, 2040, 2007,  153
 402, 1743, 2377, 1733, 2389
 403, 2473, 2472, 1661, 2544
 404, 1998, 2047,  157, 2025
 405,  118, 1001,  887,  955
 406,  887,  810,   97,  955
 407,   98,  956, 1968, 1994
 408, 2092,  120, 2145, 2273
 409, 1948,  100, 2200, 2179
 410, 2077, 1970, 1906,  101
 411, 1386, 1842, 1355,  103
 412, 2274, 1355, 1322, 2293
 413, 1172, 2331, 1202,  125
 414, 2035, 1994, 1968, 2130
 415,  126, 1039,  958,  883
 416,  105,  883,  958,  855
 417,  930, 1087, 1066, 2248
 418,  976,  927,  928, 1305
 419,  928,  646,  635,  979
 420, 2248, 1066, 1305,  928
 421, 1074, 1013, 2296, 1041
 422, 1184, 1279, 1093, 1125
 423, 1253, 1224, 1309,  110
 424, 1520, 1938, 1469, 1556
 425, 1962, 2710, 2018, 1584
 426, 1866, 1680, 1702, 1682
 427, 1655, 2575, 1615, 1643
 428, 1548,  114, 1578, 2464
 429, 1579,  137, 1215, 1953
 430, 1962, 1715, 1702, 1729
 431, 1673,  113, 2704, 1704
 432,  899,  836,   82,  963
 433,  118,  963,  960, 1109
 434, 1105, 1048,  981, 1149
 435, 1960, 1031, 1051, 1106
 436, 1342, 1349, 1436,  184
 437, 2467, 1538,  202, 1559
 438, 1646, 1589, 2521,  224
 439,  250, 1543, 1384, 1430
 440,  259, 1160, 1204, 1169
 441, 2000, 2080, 2033, 1891
 442, 2047, 2136, 2210, 2186
 443, 1880, 2233, 2424, 1726
 444, 1880, 1726, 1742,  122
 445, 1743, 1735,  154, 2377
 446, 1251, 1958, 1225, 2330
 447,  151, 1137, 1201, 1220
 448,  156, 2136, 2047, 1998
 449, 1880,  122, 2126, 2016
 450, 2316, 1742, 1726, 2376
 451, 1839, 1735, 1743, 2309
 452, 1198, 1163,  150, 1549
 453, 1122,  127, 1163, 1198
 454, 1162, 2332, 1254,  128
 455, 1062, 2333, 2361, 1023
 456,  148, 1357, 1361, 2380
 457, 1213, 1247, 1307, 1248
 458, 1302, 2532, 2506, 2523
 459, 1400, 2504, 1442, 1472
 460, 2708, 1546, 1561,  133
 461, 1592, 1561, 1627, 1653
 462, 1653, 2026, 1666,  134
 463,  143, 1924, 1710, 1716
 464, 2374, 1514, 2439, 1375
 465, 1145, 1101, 1043, 1180
 466,  142, 2439, 1498, 1924
 467, 1375, 1326,  141, 2374
 468, 1889, 1818,  196, 2448
 469, 1854,  882,  999,  197
 470, 1499, 1875, 2435,  142
 471, 1811, 2600, 1810, 1807
 472,  826, 1231, 1108, 2313
 473,  144, 2026, 1947, 2074
 474, 1888, 2057, 2005, 2183
 475, 1755, 1769, 1764, 1873
 476, 1751, 1748, 1776, 2474
 477, 2373, 1779, 2438, 1771
 478, 1790, 1779, 1910,  241
 479, 1038, 1004,  240, 1792
 480, 1052,  990, 1038,  241
 481, 1471, 1591, 1442, 2504
 482,  192, 1652, 1587, 1620
 483,  231, 1797, 1727, 1812
 484, 1748, 1751, 2607, 1739
 485, 1359,  146, 1362, 2468
 486, 2604,  173, 2671, 1525
 487, 1357,  148, 1443, 1402
 488, 1523,  172, 2548, 1474
 489, 1193, 1560, 1493, 1129
 490, 1149,  981, 2282,  161
 491,  845,  181, 2277,  916
 492,  199, 1114, 1010, 2240
 493,  182, 2295, 2276, 1058
 494, 1107,  200, 1335, 1283
 495, 1335, 1395, 2328,  201
 496, 1629, 1663, 1393, 1601
 497,  202, 1629, 1601, 1559
 498, 1461, 1436, 1349,  201
 499, 1051, 1107, 1283,  183
 500, 1051, 1031,  182, 1107
 501,  916,  161,  837,  845
 502, 1891, 1054, 1048, 2000
 503,  757,  496,  497,  785
 504,  894,  160,  915,  932
 505,  808,  160,  894,  960
 506,  773,  498,  499,  774
 507, 1931,    2,  498,  773
 508, 2097, 1966, 2336,  162
 509, 1707, 1686, 2233, 2527
 510,  185, 1640, 1736, 1712
 511, 2666, 2622, 1698, 2681
 512, 1282, 2461, 1437, 2566
 513,  227, 2598, 2536, 1426
 514, 2537, 1377, 2599, 1505
 515, 1449, 1426,  248, 1417
 516,  165, 1661, 2543, 2516
 517, 2544, 1661, 1558, 1600
 518, 1745, 1712,  204, 1732
 519, 1505, 1778,  226, 2537
 520, 1770, 1766,  206, 1778
 521,  154, 1694, 1696, 2377
 522, 1932, 1734,  167, 2417
 523,  186, 1749, 1754, 2608
 524, 1777, 1766, 1770, 2677
 525, 1964, 1766, 1777, 2633
 526, 1791, 2690, 2687, 1795
 527, 1932, 2390, 2389, 1717
 528, 2564, 2118, 1834, 2615
 529, 2591, 2039, 2564, 2615
 530, 1187, 2478, 1261, 2429
 531, 2061, 1918, 2477, 2195
 532, 1521, 2648, 1557, 2605
 533, 2005, 2057, 2697, 1764
 534, 1815, 1871, 1808, 2212
 535,  176, 1815, 2212, 2220
 536, 1807, 2628, 1801, 1800
 537, 1326, 1425, 1957, 2388
 538, 1849, 1929, 1841, 2105
 539, 1281,  183, 1342, 1383
 540, 1507,  184, 1482, 1537
 541,  166, 2513, 1741, 2416
 542, 1763, 2100,  186, 2608
 543, 1755, 1873, 1758, 2649
 544, 1772, 2667, 1769,  214
 545,  194, 2670, 1787, 2628
 546, 2617, 1801, 2628, 1787
 547,  215, 1782, 1767, 1774
 548, 1508, 1459, 1538,  203
 549, 1558, 2501, 1639, 1600
 550, 1754, 1749,  205, 1506
 551, 2646, 2583,  188, 1796
 552,  228, 2044, 1856, 1617
 553, 1481,  229, 2614, 1536
 554, 1351, 1439, 1338,  263
 555,  243, 1599, 1648, 1858
 556, 1634, 2684, 2683, 1915
 557, 1711, 2607, 2657, 1714
 558, 1761,  214, 1759, 1765
 559, 2567, 1799, 1794, 2617
 560, 1823, 1825, 1241, 1832
 561, 1823,  217, 1821,  216
 562, 1774, 1767, 1761, 1783
 563,  216, 1827, 1825, 1823
 564,  989, 2317,  218, 1828
 565, 1457,    5,  504, 1483
 566,  813,  254,  897,  221
 567, 1321,  222, 1294,  253
 568, 1614, 1574, 1589, 1646
 569, 1744, 1730,  222, 1321
 570, 2459, 1664, 1708, 1718
 571, 1588, 1692,  224, 2521
 572, 2609, 1463, 2659, 1722
 573, 2044, 2111, 2654, 1856
 574, 1379, 1338, 2635,  245
 575, 1439, 1351, 1460, 2520
 576, 1551, 1554,  228, 1617
 577, 1633, 2692, 2651,  229
 578, 1783,  233, 1784, 1975
 579, 1904, 1073, 1118, 1147
 580,  906, 1148,  827,  238
 581,  235, 2449, 1118, 1148
 582,  531,  764,  865,   19
 583,  968, 2265, 1003, 1022
 584,  814, 2306,  268,  900
 585,   18,  721,  282,  528
 586, 1535, 2596, 2556, 1552
 587, 2635, 1458, 2665,  245
 588, 2503, 1422, 1838, 1419
 589,  247, 2114, 1874, 2542
 590, 2688, 2043, 1856, 2654
 591, 2580, 1500, 2535, 1277
 592, 1464, 1228, 1282, 2566
 593, 2369, 2370, 1916, 1415
 594,  250, 1464, 2571, 1511
 595, 1516,  256, 1534,  252
 596, 1384, 1396, 2393, 1346
 597, 1277, 2470, 1099, 2534
 598, 1450, 1858, 2400, 1420
 599, 1032, 1033,  266, 1233
 600,  720,  512,  513,  781
 601, 2307, 1196,  835,  834
 602,  724, 1071,  914,  843
 603,  284,  881,  951, 1110
 604,  273, 2261, 1046, 1113
 605,  952,  846,  285,  987
 606,  274, 2337, 1243, 1274
 607, 1097, 1278,  987, 1974
 608, 1370, 1278, 1341, 1422
 609,  905,  839,  287,  970
 610,  276, 1069, 1017, 1382
 611, 1070,  277,  970, 2326
 612, 1100, 1040,  277, 1070
 613,  279, 1273, 1244, 1276
 614, 2455, 1343,  278, 2385
 615,  281, 2263,  966, 1238
 616,  822,  904, 2263,  717
 617,  731,  285,  846,  786
 618,  740,  852,  288,  718
 619, 1921,  886,  949,  333
 620,  333,  949, 1388, 1987
 621,  293, 1387, 2010, 1840
 622,  684, 1949,  295,  683
 623, 1981, 2038, 1995,  298
 624, 2250,  812, 2279,  948
 625,  326,  996,  885,  947
 626, 2329, 1905, 2299,  996
 627,  350, 2404, 2344, 1239
 628, 1847, 2022,  351, 1265
 629, 2022, 2223, 2062,  351
 630,  854,  299,  676,  697
 631,  931, 1268,  926,  301
 632,  877,  929,  300,  860
 633, 1027, 1090,  303, 1078
 634, 1312, 1367, 1255,  346
 635, 1445, 1441, 1470,  371
 636, 1972, 2578, 2634,  389
 637, 2216, 2125, 2161, 2655
 638, 1185,  640,  803,  302
 639,  320, 2561, 1315, 1892
 640, 1211,  322, 1188, 1249
 641, 2409, 1301,  346, 1133
 642,  370, 1411, 1448, 1902
 643,  390, 1562, 1625, 1647
 644, 1861, 1621, 1626, 2668
 645, 2037,  305, 1980, 2623
 646, 1961,  321, 2011, 2221
 647,  369, 1495, 1630, 1473
 648, 1899, 2680, 1631,  391
 649,  391, 1625, 1562, 1527
 650, 1775, 1768,  306, 2660
 651, 2134,  319, 2081, 2190
 652, 2539, 2221, 2196, 2587
 653, 2101, 2540, 2154, 2603
 654, 1596, 1567,  392, 2613
 655,  411, 1597, 1567, 1865
 656,  307, 1788, 1781, 1773
 657, 1939,  319, 2679, 2699
 658, 2218,  342, 2205, 2672
 659, 2199,  395, 2203, 2602
 660, 1865, 1567, 1596, 2014
 661,  316, 2103, 2006, 2640
 662, 2214, 2194, 2158, 2205
 663, 1877, 2050, 2156,  365
 664, 2030, 1901, 1678, 1852
 665, 1852,  409, 2041, 2204
 666, 1502, 1879, 1454,  310
 667, 1935, 1611, 1660,  317
 668, 2108, 2176, 2048, 2572
 669, 1877, 2051, 1580, 2487
 670, 2507, 1570,  408, 1608
 671,  409, 1852, 1678, 1649
 672, 1545, 1530, 1564, 2584
 673, 1612, 2499,  361, 2419
 674, 1613, 1618, 1951,  362
 675,  994, 1085, 1055,  403
 676, 1136,  405, 1206, 2341
 677, 2341, 1967, 1178,  404
 678, 2163, 1897, 2512, 2058
 679, 1644, 1616, 1868,  340
 680,  316, 1564, 1611, 1935
 681, 1603, 1545, 2584, 1830
 682, 1577, 1513, 2500,  315
 683, 2088, 2709, 2006, 2103
 684, 1859, 1781, 1788, 1990
 685, 2700,  318, 2686, 2699
 686, 1977, 1209, 1214, 2202
 687, 1249, 1188, 1128, 1191
 688, 1037, 1126, 2297, 1287
 689,  349, 1096, 1167, 1223
 690,  325, 1199, 1139, 1165
 691, 1239, 2344, 1909,  327
 692, 2098, 1913, 2151,  330
 693, 2012,  332, 1840, 2010
 694, 2053, 2117, 1872,  357
 695,  310, 2529, 1390, 1502
 696,  337, 1378, 1435, 1462
 697, 1616, 2512, 1897, 1868
 698, 1530, 1486, 1571,  339
 699, 2572, 2048, 2585,  340
 700, 2133, 2214, 2685, 2686
 701, 2190, 2081, 2664,  342
 702,  345, 1250, 1311, 1447
 703, 1195, 1127, 1300,  322
 704, 1161, 1095, 1133,  346
 705, 2382, 2310, 1941,  348
 706,  372, 1222, 1197, 1563
 707, 2436, 1197, 1222, 1155
 708,  376, 2049, 1869, 1709
 709, 1831, 1705, 1724, 2511
 710, 2052, 2319, 2135, 1296
 711,  355, 1988, 2055, 2437
 712,  896,  986, 1922, 2053
 713,  857,  892,  660, 2243
 714,  590,  591,  723,  726
 715,   51,  592,  632,  381
 716, 1235,  758,  336, 1297
 717,  777,  552,   30,  763
 718,  820,  553,  554,  402
 719, 2302,  967,  903, 1863
 720, 1967, 2402, 2403, 1178
 721, 2554, 2176, 2108, 2165
 722, 1928, 2034,  398, 2443
 723, 1504, 1528, 1480, 1453
 724,  364, 2051, 2158, 2194
 725, 2222, 2624, 2587, 2196
 726, 1312,  369, 1411, 1367
 727,  373, 2557, 2085, 1997
 728, 1997, 2085, 2226,  374
 729, 2042, 2533, 2215, 2124
 730, 1709, 1869,  375, 2593
 731, 1675, 1659, 2576,  377
 732,  902,  964, 1205,  383
 733,  383, 1175, 1140, 1064
 734,  913,  723,  381,  660
 735,  422, 2236,  821,  911
 736,   48,  588,  422,  715
 737, 1581, 1512, 1542, 1585
 738,  385, 1541, 1512, 1581
 739, 1186, 2465, 1263,  438
 740, 1264, 1075, 2363, 1320
 741,  458,  982,  971, 2245
 742,  585,   47,  795,  742
 743,  387, 1565, 1637, 1919
 744, 2678, 1496, 1519, 1867
 745,  417, 1519, 1496, 1412
 746, 2028, 1623, 2125, 2216
 747, 1562,  390, 1593, 1494
 748, 1527, 1562, 1494, 2485
 749, 2629, 1448, 1473, 1630
 750,  368, 2101, 1954, 1495
 751, 1901, 2166,  395, 1608
 752,  396, 2050, 1877, 2487
 753, 1267, 1230,  405, 1329
 754, 1230, 1330, 1928, 2443
 755, 1928,  397, 2129, 2034
 756, 1580,  397, 1528, 2487
 757,  407, 1504, 1453, 1446
 758, 2008, 2167, 2197, 2119
 759, 1336, 1397, 1280,  438
 760, 2363, 1542,  419, 1320
 761, 2285, 1030, 2255,  935
 762,  442, 1229, 2311,  872
 763, 1207, 1179, 1081,  424
 764, 1418, 1262, 1308, 2434
 765, 1410,  426, 1292, 1394
 766, 1485, 1510,  427, 1406
 767, 1607, 1568, 1522, 1641
 768,  428, 1568, 1638, 1606
 769, 2573, 1670, 2568, 1650
 770, 2510, 2177, 2069, 1952
 771, 2510, 1952, 2569,  430
 772, 1691, 1956, 2418,  450
 773, 2188, 2570, 1679, 1699
 774, 1895, 1662, 1898,  451
 775, 1690, 2551, 2550, 2597
 776, 1531, 1503,  452, 1569
 777, 1636, 1619,  433, 2489
 778,  434, 1604, 1622, 1672
 779, 2488, 1979, 1672, 1622
 780, 1475, 1451,  437, 1412
 781, 1094, 2286, 1063,  457
 782,  749,  559,  560,  459
 783, 1111,  941,  461, 2399
 784,  445, 1111, 1237, 2427
 785, 2444,  448, 1993, 2001
 786,  450, 2418, 2142, 2164
 787,  450, 2027, 1898, 1691
 788, 1479, 1414, 1503,  451
 789, 1345, 1298,  469, 1380
 790, 1177, 1082, 1135,  454
 791, 1337, 1876, 1226, 1280
 792,  879,  867,  796,  859
 793, 2269,  633,  661,  475
 794, 1260,  462, 1398, 1271
 795,  888,  477,  998,  943
 796, 2371, 2340, 2141,  465
 797, 2064, 1989, 2112, 2372
 798,  467, 1455, 1389, 1431
 799, 1456, 1478, 1452, 2387
 800,  469, 1298, 1143, 1112
 801,  470, 1002, 1098, 1176
 802,  829,  909,  993,  472
 803,  475,  661,  729,  849
 804,  848, 2246,  756,  783
 805,  493,  861,  884, 1991
 806,  861,  756, 2246,  884
 807,  901, 1044,  487,  819
 808,   42,  576,  861,  493
 809,  730,  778, 1853,  492
 810,  961,   85,  851, 1005
 811,  502,  199, 2240,    4
 812,  735,  500,  501,  734
 813,  552,  777,  788,  551
 814,  813,  801,  713,  254
 815,  753,  733,   96,  675
 816,    1,  728,  733,  495
 817,  757,  785,  808,   82
 818,    2, 1931,  785,  497
 819,  734,  501,    4, 2240
 820,  719,  503,    5, 1457
 821, 1483,  504,  505,  801
 822,    6,  713,  801,  505
 823,  864,  506,  507,  799
 824,    7,  737,  799,  507
 825,  255,  508,  509,  759
 826,  270,  510,  511,  709
 827,  843,  834,  781,  724
 828,  515,  283, 1071,  514
 829,  515,   11, 1117,  283
 830,   12,  518,  745,  731
 831,  285,  731,  745,  844
 832,  839,  741,  761,  287
 833,  522,  718,  779,  521
 834,  718,  522,   15,  740
 835, 1272,  524,   16,  290
 836, 1238,  650,  790,  281
 837,   17,  717,  790,  526
 838,  530,  269,  792,  529
 839,  269,  530,   19,  865
 840,  532,  870,  764,  531
 841,  870,  532,   20,  710
 842,  534,  237,  738,  533
 843,  237,  534,   21,  868
 844,  536,  219,  714,  535
 845,  219,  536,   22,  652
 846,  754,  537,  538,  716
 847,  716,  538,   23,  780
 848,  139,  959,  818,  736
 849,   24,  139,  736,  540
 850,  542,  748,  776,  541
 851,  748,  542,   25,  771
 852,  760,  543,  544,  768
 853,  762,   85,  850,  768
 854,   85,  762,  770,  851
 855,  547,  769,  766,   27
 856,   28,  758,  782,  548
 857,  336,  549,  550,  627
 858,  627,  550,   29,  359
 859,  402,  554,   31,  662
 860,  556,  423,  712,  555
 861,  423,  556,   32,  869
 862,  558,  866,  775,  557
 863,  866,  558,   33,  727
 864,  459,  560,   34,  867
 865,  562,  474,  796,  561
 866,  474,  562,   35,  633
 867,  661,  563,  564,  729
 868, 2239,  798,  566,   37
 869, 2237, 2238,  567,   38
 870,  767,  732, 1006,  488
 871,  750,  747,  489, 2247
 872,  751,  747,  570,  571
 873,  744,  752,   40,  572
 874,  730,  765,   41,  574
 875,  575,   42,  493,  778
 876,  711,  783,   43,  578
 877,  909,  791,  473,  936
 878,  908,  936,  473,  863
 879,  862,  802,   46,  584
 880,  586,  587,  787,  441
 881,  821, 2236,  800,  382
 882,  589,   49,  800, 2236
 883,  381,  723,  591,   51
 884,  655,  658,   52,  594
 885,  595,  596,  656,  657
 886,  596,   54,  597,  656
 887,   84,  687,  680,  815
 888,  678,  688,   56,  599
 889,  292,  689,  679, 1291
 890,  690,  681,  293, 2252
 891,  691,  682,  294, 1387
 892,  692,  683,  295, 1907
 893,  604,   61,  693,  684
 894,  860,  697,   65,  609
 895,  610,   50,  494,  753
 896,   71,  675,  698,  611
 897,  699,  612,   72,  665
 898,  700,  613,   73,  666
 899,  701,  614,   74,  667
 900,  702,  615,   75,  668
 901,  703,  616,   76,  669
 902,  704,  703,  101, 1906
 903,   77,  670,  705,  618
 904,   78,  671,  706,  619
 905,   79,  672,  707,  620
 906,   80,  673,  708,  621
 907,  639,  634,  623,  630
 908, 2275, 2260, 2284,  643
 909,  631,  644, 2249,  625
 910,  630,  626,  635,  642
 911,  609,   66, 2241,  663
 912,  624,  636,  640,  631
 913,  639,  641, 2259,  634
 914,  636,  624,  629,  638
 915,  644,  631,  640, 1185
 916, 2243,  660,  381,  632
 917,  641,   95, 2283, 2259
 918,  629,  623,  634,  638
 919,  642,  635,  646,  805
 920,  639,  630,  642,  645
 921,  647, 2249,  644,  806
 922,  301,  637, 2249,  647
 923,  643,  640,  636, 2275
 924,  641,  639,  645,  648
 925, 1016,  642,  805,  107
 926,  649,  643, 2284,  804
 927,  643,  649,  803,  640
 928,  644, 1185, 2253,  806
 929,  648,  645,  807,  874
 930,  927,  805,  646,  928
 931, 2241,  637,  301,  663
 932,   95,  641,  648,  874
 933,  803,  649,  875,  873
 934,  650, 1238, 1236,  290
 935, 1854, 1108, 1231,  198
 936,  788,  777,  856, 1976
 937, 2321,  653, 1976,  360
 938,   53,  595,  657,  654
 939,  335, 1914,  891,  997
 940,  896,  358,  953,  986
 941,  891, 1914,   84,  815
 942,  358, 2235,  658,  953
 943,  593,   52,  658, 2235
 944,  659,  945,  880,  859
 945,  859,  796,  474,  659
 946,  723,  913,  853,  726
 947,  729,  564,   36,  784
 948,  697,  860,  300,  854
 949,  825,  622,   81,  674
 950,  825,  919,  664,  622
 951,  666,  699,  810,   98
 952,   99, 1982,  668,  701
 953,  100, 1948,  669,  702
 954,  102, 1386,  705,  670
 955,  670,   77,  617,  704
 956,  103, 1288,  706,  671
 957,  104,  811,  707,  672
 958,  708,  673,  105,  855
 959,  708,  855,  106,  674
 960,  698,  675,   96,  816
 961,  696,  676,  299,  812
 962,  677,  696,  812, 2250
 963,  695,  677, 2250,  298
 964,  291,  688,  678,  809
 965,  600,   58,  690,  679
 966,  815,  680,  688,  291
 967,  601,   59,  691,  681
 968,  602,   60,  692,  682
 969,  296, 1949,  684,  693
 970,  685,  694,  297, 1983
 971,  296,  693,  685, 1983
 972,  297,  694,  686, 1995
 973,  298, 1995,  686,  695
 974,  271,  871,  709,  797
 975,  823,  969,  710,  738
 976,  710,  969,  238,  870
 977,  838,  848,  783,  711
 978, 1835,  220, 1934, 2298
 979,  219,  826,  895,  714
 980,  787,  715, 2244,  830
 981,  780,   23,  539,  772
 982,  288, 1008,  779,  718
 983,  719, 1434, 1114,  199
 984,  797,  720,  835,  271
 985,  721,  814,  900,  282
 986,  722,  565,  566,  798
 987,   11,  516,  725, 1117
 988, 1110,  951, 1019, 1045
 989,  800,  726,  853,  382
 990,   49,  590,  726,  800
 991,  828, 1012,  727,  749
 992,  442,  866,  727, 1012
 993,  728,  836,   96,  733
 994,  739,  765, 1371,  491
 995,  517,   12,  731,  786
 996,  569,   39,  750,  732
 997,  735,  734,  181,  845
 998,  735,  845,  837,  793
 999,  253, 2320, 1374, 1321
1000, 1843,  933, 2317, 1060
1001,  765,  739,  573,   41
1002,  744,  739,  491,  832
1003,  852,  740,  289, 1244
1004,  761,   14,  521,  779
1005,  743,  741,  839, 2262
1006,  858,  458,  862,  742
1007,  746,   13,  519,  743
1008,  844,  745,  746,  286
1009,  489, 1946, 1331, 2104
1010,  771,   25,  543,  760
1011, 1042, 1141, 1089,  977
1012,  752,  751,  571,   40
1013, 1331, 1946,  490, 1269
1014,  752,  744,  832,  490
1015,  754,  198, 1231,  652
1016,  851,  770,  755,  312
1017,  576,  577,  756,  861
1018,  783,  756,  577,   43
1019,  313,  782,  758, 1235
1020,  768,  544,   26,  762
1021,  401,  856,  777,  763
1022,  238,  827,  764,  870
1023,  769,  547,  548,  782
1024,  312,  755,  766, 1152
1025,  767,  488,  819, 2237
1026,   38,  568,  767, 2237
1027, 2268, 1850, 1119, 1152
1028,  780,  842,  840,  716
1029,  773,  774,  841,  915
1030, 1931,  773,  915,  160
1031,  837,  841,  774,  793
1032,  442,  872,  775,  866
1033, 1853,  778,  493, 1991
1034,  782,  313, 2268,  769
1035, 2270,  722,  824, 2278
1036,  160,  808,  785, 1931
1037,  284,  725,  786,  846
1038,  788, 1976,  653,  359
1039,  791,  909,  829,  651
1040,  910,  486,  651,  829
1041,  789,  794, 1164,  485
1042,  917,  858,  742,  795
1043, 2278,  824,  487, 1044
1044, 1934, 1483,  801,  813
1045,  908, 2245,  971,  457
1046,  922,  803,  873,  920
1047,  805,  927,  975,  107
1048, 1157, 1037, 2288,  924
1049,  980,  931,  876, 1025
1050,  974,  921,  807, 1016
1051, 1079, 2324,  973, 2335
1052,  960,  894, 2353, 1109
1053,  886,  809,  292,  949
1054,  956,   98,  810,  887
1055, 1373,  104, 1288, 2274
1056,  946,  883,  105,  811
1057,  812,  299,  885, 2279
1058,  298, 2250,  948, 1981
1059,  897,  254,  962, 1294
1060, 1663, 2298,  221, 1393
1061, 2265,  968, 2306,  814
1062,  815,  291,  954,  891
1063,  816,   96,  836,  899
1064,  955,  899,  963,  118
1065,  817,  737,  255, 1428
1066,  962, 2251,  253, 1294
1067, 2305,  180, 2266,  818
1068,  401,  763,  820,  903
1069,  912, 1863,  402,  662
1070, 2236,  422,  588,  589
1071,  282,  900,  934,  822
1072,  236, 1158,  969,  823
1073,  942,  888, 2270, 2278
1074,  218,  895,  826, 2313
1075,  219,  652, 1231,  826
1076,  906,  238,  969, 1158
1077, 1028, 1003,  269,  865
1078,  472,  925,  910,  829
1079,  830,  988,  441,  787
1080, 1164,  910,  925, 2257
1081, 1144,  485, 1164, 2257
1082,  937,  423, 1115, 1065
1083,  849,  833,  476,  893
1084,  833,  784,  722, 2270
1085, 1171, 1286, 2307,  272
1086,  720,  781,  834,  835
1087,  808,  960,  963,   82
1088,  837,  161, 2282,  841
1089,  484, 1068, 1002,  957
1090,  484,  848,  838, 1068
1091, 2308,  882,  840,  842
1092,  932, 2282,  981,  159
1093,  842,  780,  772, 2266
1094,  890, 2305,  818,  959
1095,  272, 2300,  972, 1171
1096,  272, 2307,  834,  843
1097,  884, 2246,  889, 2258
1098,  312, 1050, 1005,  851
1099, 2254,  964,  382,  853
1100,  983,  300,  929, 1317
1101,  947,  885,  299,  854
1102,  930,  106,  984, 1087
1103, 1976,  856, 1965,  360
1104,  358,  896,  857, 2243
1105,  892,  857,  357, 1296
1106,  440, 2256,  858,  917
1107,  460,  879,  859,  880
1108,  862,  458, 2245,  802
1109,  863,  473,  582,  583
1110,  254,  713,  864,  962
1111, 1358, 1196, 1323,  257
1112, 1846,  270, 1887, 1973
1113, 1115, 1153,  424, 1081
1114,  875, 2315,  920,  873
1115,  923,  804, 2323, 2324
1116, 2323,  804,   95,  874
1117, 2315,  875,  923,   94
1118, 1023, 1018,  975,  927
1119,  301,  647,  876,  931
1120,  926,  877,  663,  301
1121,  878, 2350, 1203, 1837
1122,  938,  879,  460,  995
1123,  880,  461,  941,  460
1124,  985,  881,  952, 2394
1125, 2337,  951,  881,  985
1126,  198,  840,  882, 1854
1127,  882, 2308,  950,  999
1128,  848,  484,  889, 2246
1129,  996, 2299, 2279,  885
1130,  955,   97,  816,  899
1131,  956,  887, 1001,  119
1132, 2258,  889, 2280,  483
1133, 1000,  140, 1101, 1284
1134,  892,  380,  913,  660
1135,  475,  849,  893, 1242
1136,  118, 1109, 1054, 1001
1137,  933,  895,  218, 2317
1138,  357,  857,  896, 2053
1139, 1319,  897, 1294,  222
1140,  961,   86, 1963,  898
1141, 1049, 1024,  998,  477
1142,  942, 2278, 1044,  978
1143,  940,  902,  383, 1064
1144,  967, 1572, 1532, 2312
1145, 1007, 1069, 2327,  905
1146, 1148,  906, 1158,  235
1147,  239, 1148, 1118, 1073
1148,  828,  907,  443, 1240
1149, 2244,  911,  940,  421
1150,  912,  831,  939, 2301
1151,  853,  913,  380, 2254
1152,  283, 1009,  914, 1071
1153,  914, 1009,  972, 2300
1154,  932,  915,  841, 2282
1155, 2277, 1011, 1166,  916
1156, 1166, 1149,  161,  916
1157,  988,  830,  935, 2255
1158, 1229,  918, 1240, 2334
1159, 1207, 2349, 2334,  425
1160,  984,  106,  855,  958
1161,  991,  920, 2315, 2368
1162,  920, 1027, 1078,  922
1163,  973,  921, 1014, 2335
1164,  302,  803,  922, 1194
1165,  806, 2253, 1157,  924
1166, 1290,  925,  472, 1860
1167, 1268, 2264, 1299,  926
1168,  929,  877,  926, 1299
1169,  919,  825,  930, 2248
1170, 1087, 1122, 1134, 1066
1171,  876,  924, 2288, 1025
1172, 1299, 1257, 1317,  929
1173,  932,  159, 2353,  894
1174, 1832,  989,  217, 1823
1175,  868,  933, 1843,  237
1176,  934,  900,  268,  990
1177,  935,  421,  992, 2285
1178,  936, 1063,  993,  909
1179,  937, 1065,  994,  403
1180, 1056,  938,  995,  444
1181, 2302, 2301, 2345, 2346
1182, 1057,  941, 1111,  445
1183,  477,  888,  942,  978
1184,  476, 1992, 1260,  893
1185, 1203, 2350, 2440, 1174
1186,  880,  945, 2348,  461
1187,  946,  811,  104, 1373
1188,  983,  947,  854,  300
1189, 1981,  948,  327, 1909
1190, 2342,  890,  140, 1000
1191, 2090, 1820, 2115,  179
1192, 1019,  951, 2337,  274
1193, 2261, 1045, 1019, 1046
1194, 2395,  987, 1278, 1370
1195,  334,  954,  886, 1921
1196,  997,  334, 1922,  986
1197, 1968,  956,  119, 2281
1198,  957, 1067, 1112, 2280
1199,  984,  958, 1039,  127
1200, 2267, 1042,  977, 1043
1201, 1857, 1205,  964, 2254
1202,  965,  478, 2225,  901
1203,  488, 1006, 2271,  965
1204,  966,  280, 1236, 1238
1205,  360, 1965, 1509, 1435
1206,  401, 2312, 1965,  856
1207,  990,  268, 1004, 1038
1208,  287, 1008, 2326,  970
1209, 1116, 2325,  288,  852
1210,  458,  858, 2256,  982
1211, 2300,  272,  843,  914
1212, 2277, 2276, 2295, 1011
1213, 1010,  181,  734, 2240
1214, 1079, 2335, 1034, 1036
1215,  874,  973, 2324, 2323
1216,  107,  975, 2296, 1013
1217, 1015, 1014,  921,  974
1218,  976, 1062, 1023,  927
1219,  901, 2225,  978, 1044
1220,  979,  919, 2248,  928
1221,  980,  324, 1268,  931
1222, 2256, 1264, 1328,  982
1223, 2365, 1328, 1264, 1221
1224, 1087,  984,  127, 1122
1225,  985,  275, 1243, 2337
1226,  285,  844, 1974,  987
1227,  917,  988, 2255,  440
1228, 2313, 1108, 2357, 1061
1229, 1832, 1241,  236, 1060
1230,  267,  934,  990, 1052
1231,  968, 1004,  268, 2306
1232, 1035, 2367, 2452, 2421
1233, 1027, 2367, 1035, 1090
1234, 1030, 2285,  420, 2322
1235,  404, 1178, 1085,  994
1236,  463,  998, 1024, 1182
1237,  159, 1054, 1109, 2353
1238,  485, 1144, 1068,  838
1239, 1022, 1003, 1028,  239
1240, 1004,  968, 1022,  240
1241, 1038, 1792, 1790,  241
1242, 1029, 1005, 1050,  311
1243, 1021, 1963,   86, 2517
1244, 2428, 1017, 1069, 1007
1245, 2325, 1116, 2385,  278
1246,  273,  972, 1009, 2261
1247, 1009,  283, 1045, 2261
1248, 1010, 1114, 1058, 2276
1249, 1031, 1011, 2295,  182
1250,  162, 2336, 1166, 1011
1251,  828, 1240,  918, 1012
1252, 1074, 1041, 1125, 1093
1253,  107, 1013,  974, 1016
1254, 2381, 1034, 2335, 1014
1255, 1015,  108, 2381, 1014
1256, 1015,  974, 1013, 1074
1257, 1099, 1382, 1017, 2466
1258, 1041, 2296,  129, 1091
1259, 1076, 2379, 1020, 1120
1260, 1963, 1021, 1146,  116
1261, 1022,  239, 1073,  240
1262,  128, 1254,  976, 1305
1263, 1018, 1023, 2361,  129
1264, 1049,  477,  978, 2225
1265,  478, 1920, 1049, 2225
1266, 2288, 2338, 2339, 1025
1267, 1216,  980, 1025, 1095
1268,   94, 1079, 1036, 1026
1269, 1035, 2421, 2422, 1121
1270,  920,  991, 2367, 1027
1271,  440, 2255, 1030, 1075
1272,  162, 1011, 1031, 1960
1273, 1032, 1233,  280,  966
1274, 1033,  267, 1052, 1104
1275, 1033, 1104, 1477,  266
1276, 1036, 1034, 1123, 2432
1277, 1077, 1090, 1035, 1121
1278,  991, 1084, 2452, 2367
1279, 1079,   94,  923, 2324
1280, 2297, 1194, 1124, 1154
1281, 1037,  323, 2338, 2288
1282, 2331, 1092,  126, 1202
1283,  278, 1343, 1100, 1070
1284,  776, 1141, 1042,  139
1285,  140, 2267, 1043, 1101
1286, 1046, 1170, 1130, 1113
1287, 1059,  273, 1113, 1131
1288, 1029, 1102, 2517,   86
1289, 1047,   87, 1285, 1103
1290,  159,  981, 1048, 1054
1291, 1106, 1051,  183, 1281
1292, 2373,  242, 1910, 1779
1293, 1053, 1096, 1138, 2329
1294, 2329, 1138, 1168, 1905
1295, 1055,  400,  939,  403
1296, 1234, 1056,  444, 1292
1297,  443,  907, 1056, 1234
1298, 1057,  445, 2378, 1348
1299,  444,  995, 1057, 1348
1300, 1058,  200, 1107,  182
1301, 1059, 1131,  258, 1171
1302, 1061, 2357, 1822, 1824
1303, 1088, 2332, 1129, 2380
1304, 2333, 1088, 2366, 2361
1305, 1142, 1094,  457,  971
1306,  456,  993, 1063, 2286
1307, 1064, 1140, 1086,  992
1308, 1065, 1115, 1081, 2294
1309,  404,  994, 1065, 2294
1310, 1305, 1066, 1134,  128
1311, 1082, 1067,  470, 1135
1312, 1112, 1067, 1082,  469
1313, 1068, 1144, 1098, 1002
1314, 1069,  276, 1097, 2327
1315, 2207, 2291, 2141, 2340
1316,  108, 1015, 1074, 1093
1317, 1020, 2379, 1992,  943
1318, 1077,  304, 1191, 1090
1319,  302, 1194, 2297, 1126
1320, 1083, 2432, 1123, 1132
1321, 1083,   93, 1084, 1026
1322, 2480, 2422, 2421,   93
1323,  399, 2403, 1951, 1645
1324, 1585, 1542,  420, 1086
1325, 1287, 1300, 1127, 2397
1326, 1247, 2391, 1306, 1307
1327,  977, 1089, 1837,  138
1328, 1401, 1125, 1041, 1091
1329,  129, 2361, 2366, 1091
1330, 1173, 1200, 1933, 1092
1331, 1181, 1094, 1142,  439
1332, 1094, 1181, 1208, 2286
1333, 1133, 1095, 2358, 2359
1334, 1096,  349, 2436, 1138
1335, 1096, 1053, 1139, 1167
1336, 2327, 1097,  286, 2262
1337, 1382,  262, 1341,  276
1338, 1150,  463, 1182, 2001
1339,  141, 1284, 1101, 1145
1340, 1289, 1102, 1352, 2618
1341, 1477,  242, 1883, 1450
1342, 2336, 1966,  158, 1105
1343, 1048, 1105,  158, 2000
1344,  163, 1960, 1106, 1890
1345, 2357, 1108, 1854,  197
1346,  483, 2280, 1112, 1143
1347, 1131, 1113, 1130,  259
1348,  200, 1058, 1114, 1434
1349, 2325,  278, 1070, 2326
1350, 1829, 1799, 1802, 1147
1351, 1850, 1432, 2411, 1119
1352, 2526, 1607, 1641, 1151
1353,   92, 2553, 1156, 1159
1354, 1314, 1077, 1121, 1189
1355, 1517, 1210, 1198, 1549
1356, 1122, 1198, 1210, 1134
1357, 1123, 1080, 1246,  109
1358, 1123,  109, 2528, 1132
1359, 1154, 1124, 1128, 1188
1360,  130, 1184, 1125, 1401
1361, 1126, 1037, 1157,  302
1362, 1183, 1127, 1195, 2409
1363, 2398, 1183, 2359, 2360
1364, 1128,  303, 1090, 1191
1365,  148, 2380, 1129, 1493
1366,  260, 2384, 1130, 1170
1367, 1131,  259, 1169,  258
1368, 1190, 1159, 1132, 2528
1369,   93, 1083, 1132, 1159
1370, 1287, 2397,  323, 1037
1371, 1967, 2341, 1206, 2386
1372,  404, 2294, 1136, 2341
1373, 2330, 1172,  125, 2293
1374, 1173, 1137,  151, 1187
1375, 2436, 1155, 1168, 1138
1376, 1165,  326,  947,  983
1377, 1167, 1139, 1199, 1259
1378, 1175,  383, 1205, 2096
1379, 1086, 1140,  384, 1585
1380, 1089, 1141,   83, 1837
1381, 1298,  468, 1344, 1143
1382,  471, 1098, 1144, 2257
1383,  137, 1424, 1145, 1180
1384, 1953, 1174, 2463, 2464
1385, 1904,  234, 1975, 1792
1386, 1149, 1166, 2336, 1105
1387, 2498, 1150, 2001, 1993
1388, 1881,  446, 1398,  462
1389, 2475, 1076, 1120,  447
1390,  424, 1153,  872, 2311
1391,  322, 1300, 1154, 1188
1392, 1154, 1300, 1287, 2297
1393, 1372, 1155, 1222, 2486
1394,  350, 1168, 1155, 1372
1395, 1158,  236, 1241,  235
1396, 1160,  259, 1130, 2384
1397, 1217, 1161,  346, 1255
1398, 1192, 1161, 1217, 1256
1399, 1162, 1210, 1517, 1193
1400, 1163, 1933, 1200,  150
1401,  471, 2257,  925, 1290
1402,  325, 1165,  983, 1317
1403, 1168,  350, 1239, 1905
1404,  258, 1430, 1384, 1346
1405,  258, 1346, 1286, 1171
1406, 1202,  126,  883,  946
1407, 1225, 1201, 1172, 2330
1408,  137, 1180, 2412, 1215
1409,  138, 2364, 2412, 1180
1410, 2068, 1925, 2096,  379
1411, 1884, 1925, 2414, 1676
1412, 1295, 1176, 1334,  455
1413, 1293, 1177,  454, 1339
1414, 1345, 1380,  453, 1413
1415,  399, 1085, 1178, 2403
1416,  425, 1329, 1179, 1207
1417,  405, 1136, 1179, 1329
1418, 1186, 1181,  439, 2465
1419, 1182, 1024,  464, 2001
1420, 1219, 1301, 2409, 1195
1421, 1133, 2359, 1183, 2409
1422, 1248, 2505, 2506, 1213
1423, 2253, 1185,  302, 1157
1424, 2465, 1221,  419, 1263
1425,  151, 1220, 2478, 1187
1426, 2429, 1261, 1942, 2430
1427, 1214,  304, 1252, 1315
1428, 2480, 1189, 1121, 2422
1429, 1224, 1253, 2528,  109
1430, 1190, 2528, 1253, 2592
1431, 1209, 1191,  304, 1214
1432, 1212, 1257, 1316, 2310
1433, 1216, 1192,  324,  980
1434,  148, 1493, 1474, 1443
1435, 1162, 1193, 1129, 2332
1436, 1194,  922, 1078, 1124
1437, 1250,  322, 1211, 1311
1438, 1250, 1219, 1195,  322
1439, 1196, 1358,  271,  835
1440, 1167, 1259, 2407, 1223
1441, 1943,  372, 1594, 1623
1442, 1257, 1212,  325, 1317
1443, 1933, 1163,  127, 1039
1444,  152, 1220, 1201, 1225
1445, 1172, 1201, 1137, 2331
1446, 1202,  946, 1373,  125
1447, 2440, 2350,  116, 1146
1448, 1204, 1160, 1227,  249
1449, 1282, 1204,  249, 2461
1450,  379, 2096, 1205, 1857
1451, 1206,  405, 1230, 2443
1452, 2349, 2311, 1229, 2334
1453,  456, 2286, 1208, 1226
1454, 2364,  138, 1837, 1203
1455, 1249, 1191, 1209,  321
1456, 1210, 1162,  128, 1134
1457, 1311, 1211, 1961,  344
1458, 1250,  345, 2483, 1219
1459, 1192, 1256, 2289,  324
1460, 2290, 1941, 2310, 1316
1461, 2532, 1279, 1184,  130
1462, 1314, 1252,  304, 1077
1463, 1315, 1252,  305, 1892
1464, 2592, 1369, 2627, 1190
1465, 1217,  347, 1313, 1256
1466, 2531, 2553, 1245, 2574
1467, 1218, 2531, 1258, 1189
1468, 1301, 1219, 2483, 2484
1469,  169, 1917, 1261, 2478
1470, 1324, 1372, 2486,  373
1471, 1628, 1595, 1223, 2407
1472, 1251, 2330, 2293, 1322
1473, 2563, 1337, 1280, 1397
1474,  248, 1275, 1227, 1266
1475,  406, 1330, 1230, 1267
1476, 1232,  480, 1269,  490
1477, 1340, 1360,  279, 1276
1478, 1272, 1276, 1244,  289
1479, 1325, 1265,  351, 1930
1480, 1905, 1239,  327, 2299
1481, 1262,  443, 1234, 1308
1482, 1242,  893, 1260, 1271
1483,  275, 2395, 1370, 2457
1484, 1391, 2455, 2385, 1719
1485,   92, 1310, 1245, 2553
1486, 1246, 1080, 2431, 1279
1487, 1306, 2391, 1361, 1357
1488, 1400, 1248, 1362, 2504
1489, 1400,  131, 2505, 1248
1490,  321, 1961, 1211, 1249
1491, 1864, 1251, 1322,  124
1492, 1251, 1864, 2095, 1958
1493, 2592, 1253,  110, 2630
1494, 1062,  976, 1254, 2333
1495, 1367,  347, 1217, 1255
1496, 2264, 1316, 1257, 1299
1497,  305, 1252, 1258, 1980
1498, 1246, 1302, 2523,  109
1499, 1309, 1224, 1364, 1404
1500, 1440, 1628, 2407,  348
1501, 2477, 1942,  170, 2089
1502,  168, 1855,  152, 2445
1503, 1308, 1234, 1292,  426
1504,  425, 2334, 1262, 1418
1505, 1263,  419, 1438,  418
1506,  439, 1142, 1328, 2365
1507,  440, 1075, 1264, 2256
1508, 1372, 1324, 2404,  350
1509, 1332, 1354,  260, 1274
1510, 1330,  406, 1480, 2502
1511, 2264, 1268,  324, 2289
1512, 1381,  480, 2287, 1896
1513,  481, 1270, 1304, 1903
1514, 1271, 1398, 2399, 2447
1515, 1273, 1719, 2385, 1116
1516, 1274,  260, 1170,  274
1517, 1333, 2492, 1377, 2537
1518,  249, 1227, 1275, 2492
1519, 1340,  280, 1233, 2355
1520, 1338, 1379, 2534,  263
1521, 1277, 2535, 1885, 2470
1522, 2532, 1302, 1246, 1279
1523,  418, 1336,  438, 1263
1524, 2515,  437, 1451, 1476
1525, 1383, 1342,  184, 1507
1526, 1281, 1383, 2441, 2446
1527, 1333, 2461,  249, 2492
1528,  201, 1349, 1283, 1335
1529, 1284,  141, 1326, 2388
1530, 1000, 1284, 2388,  179
1531, 1323, 1286, 1346, 2393
1532, 1288,  103, 1355, 2274
1533, 1373, 2274, 2293,  125
1534, 1353, 1289, 2618,  310
1535, 1860,  472,  993,  456
1536, 1291, 2252, 1356, 1388
1537, 1177, 1293,  453, 1380
1538,  263, 2466, 2530, 1351
1539, 1347, 1295,  455, 1476
1540,  454, 1135, 1295, 1347
1541,  380,  892, 1296, 2135
1542,  337, 1462, 1544, 1350
1543, 2484, 2483, 2525, 1365
1544, 1389, 1303,  481, 1431
1545, 1232, 1303, 2287,  480
1546, 1304,  491, 1371, 1423
1547, 1423, 1371,  492, 1985
1548, 1307, 1306,  147, 2468
1549, 2468,  147, 2549, 1359
1550, 1307, 2468, 1362, 1248
1551, 1469, 1309, 1404, 2638
1552, 2523, 1364, 1224,  109
1553, 1245, 1310, 1368, 2574
1554, 1312,  346, 1301, 1416
1555,  347, 1367, 1408, 1366
1556, 1313, 1407, 1941, 2290
1557, 2290, 2289, 1256, 1313
1558, 1318, 1243,  275, 2457
1559, 1393, 1319,  222, 1601
1560,  221,  897, 1319, 1393
1561, 1320,  419, 1221, 1264
1562,  252, 1427, 1374, 1516
1563, 1324,  373, 1997, 1847
1564,  328, 2304, 1325, 1930
1565, 1325, 2344, 2404, 1265
1566, 1425, 1326, 1375, 2435
1567, 1327,  653, 2321, 1378
1568, 1946,  489,  747,  751
1569, 1354, 1332, 1363, 1417
1570,  226, 2560, 1333, 2537
1571, 1409, 1336,  418, 1602
1572, 1336, 1409, 2577, 1397
1573, 1876, 1337, 2454, 2003
1574, 1339,  454, 1347, 1497
1575,  436, 1944, 1955, 1376
1576, 1422, 1341,  262, 1838
1577, 1349, 1342,  183, 1283
1578, 1343, 2481, 2530, 1100
1579, 1392, 1345, 1413,  452
1580, 1476,  455, 2454, 2515
1581, 1406, 1394, 1348, 2378
1582, 1870,  314, 1432, 1850
1583, 1460, 1351,  264, 2482
1584, 2529, 2411, 1432, 1390
1585, 2618, 1352, 2529,  310
1586, 1454, 1429, 1353,  310
1587, 1385, 1429, 2676,   88
1588, 1266, 1354, 1417,  248
1589,  124, 1322, 1355, 1842
1590, 2406, 1987, 1388, 1356
1591, 1364, 2523,  131, 1403
1592,  147, 1306, 1357, 1402
1593, 2370, 2369, 1433, 2401
1594,  871,  271, 1358, 1415
1595,  147, 1402, 1405, 2549
1596, 1359, 1444, 1492,  146
1597,  266, 1420, 2355, 1233
1598, 1681, 1697,  265, 1669
1599, 2380, 1361, 2366, 1088
1600, 1419, 1363,  261, 2503
1601,  247, 1417, 1363, 1419
1602, 1403,  131, 1400, 1472
1603, 1404, 1364, 1403,  132
1604, 1366, 1408, 1441, 1445
1605, 1416, 1301, 2484, 1365
1606,  370, 1408, 1367, 1411
1607, 1969, 2682,   91, 2706
1608, 2004,  111, 2031, 2630
1609, 1318, 2457, 2503,  261
1610, 2457, 1370, 1422, 2503
1611, 1985,  492, 1853, 2272
1612, 1428, 1374, 2320,  817
1613, 1427,  252, 1614,  223
1614, 1424, 2374,  141, 1145
1615, 1668,  435, 2488, 1654
1616, 1339, 1376, 1668, 1293
1617, 1275,  248, 1426, 2536
1618, 2598, 1780, 2643, 2599
1619, 1885,  246, 2114, 1838
1620, 1277, 2534, 1379, 2580
1621, 1072, 2104,  479, 2291
1622,  262, 1382, 1099, 2470
1623,  164, 2496, 2441, 1383
1624, 1430,  258, 1169, 1228
1625, 1396, 1384, 1543, 2476
1626, 1515, 1385,   88, 1547
1627, 2009, 1386,  102, 2078
1628, 2046, 2009,  123, 1839
1629, 2010, 1387,  294, 2087
1630, 1291, 1388,  949,  292
1631, 1389, 1455, 2287, 1303
1632,  314, 1577, 1390, 1432
1633, 1502, 1390, 1577,  315
1634, 1697, 1681, 1391, 1719
1635, 1681, 1669, 2482,  264
1636, 1414, 1392,  452, 1503
1637, 1601,  222, 1730, 1559
1638,  427, 1410, 1394, 1406
1639, 1835, 1395, 1434,  220
1640, 1395, 1835, 2082, 2328
1641, 1433, 2396, 2451,  251
1642, 2396, 2393, 1396, 2451
1643, 1412,  437, 2565, 2577
1644, 1237, 1398,  446, 1465
1645,  426, 1410, 1421, 1399
1646, 1399, 1421,  406, 1267
1647, 1403, 1472, 1466,  132
1648, 2506, 2532,  130, 1213
1649, 1247, 1401, 1091, 2391
1650, 2638, 1404,  132, 1487
1651, 1444, 1582, 1566, 1492
1652, 2433, 1485, 1406, 2378
1653, 1366, 1445, 1440, 1407
1654,  348, 1941, 1407, 1440
1655, 1408,  370, 2485, 1441
1656, 2577, 1409,  417, 1412
1657,  427, 1539, 1446, 1410
1658, 1411,  369, 1473, 1448
1659, 1451, 1475,  436, 1497
1660, 1447, 2017, 2023, 2525
1661, 1605, 1569,  452, 1413
1662,  467, 2387, 1479, 1945
1663,  468, 1392, 1414, 1452
1664,  256, 1973, 1887, 1916
1665, 1416, 1365,  368, 1495
1666, 1417,  247, 2542, 1449
1667, 2434, 1308,  426, 1399
1668, 1424, 1540, 1514, 2374
1669, 1957,  178, 1889, 2090
1670, 2405, 1744, 1427,  223
1671, 1321, 1374, 1427, 1744
1672, 1533, 1428,  255,  759
1673,  250, 1430, 1228, 1464
1674,  481, 1903, 1456, 1431
1675, 1940, 1455,  467, 1945
1676, 2396, 1433, 2369,  257
1677, 2401, 1574, 1534, 2370
1678, 1434,  719, 1457,  220
1679, 1484, 1435, 1509,  361
1680, 1462, 1435, 1484, 2420
1681,  184, 2415, 1459, 1482
1682, 2560, 1463, 2609, 1437
1683, 1541, 1657, 1438, 1512
1684, 2596, 1439, 2520, 2556
1685, 1439, 1458, 2635, 1338
1686, 1468,  173, 1405, 1491
1687,  371, 1563, 1595, 1628
1688, 1471,  146, 1492, 2605
1689, 1442, 1488, 1466, 1472
1690, 1492, 1566, 1521, 2605
1691, 1444, 1359, 2549, 2604
1692, 1445,  371, 1628, 1440
1693, 1447, 1311,  344, 2017
1694, 1899, 1902, 1448, 2629
1695, 1999, 1893, 1449, 2542
1696, 1805, 1883,  242, 2373
1697, 1858, 1450, 1883,  243
1698,  406, 1421, 1453, 1480
1699,  309, 2676, 1429, 1454
1700, 1896,  466, 1989, 1381
1701, 1478, 2314,  482, 1344
1702, 1535, 1501, 2636, 2596
1703, 1458, 2636, 2705, 2665
1704, 1639, 2501, 1508, 2545
1705, 2415,  184, 1436, 1461
1706, 2482, 1669, 1635, 1460
1707,  244, 2520, 1460, 1635
1708, 1461,  201, 2328, 1629
1709,  202, 2415, 1461, 1629
1710, 1463, 2560,  226, 1506
1711, 2621, 1511, 2571,  225
1712, 2427, 1237, 1465, 2453
1713, 1465, 1522, 1489, 2453
1714, 1924,  143, 1499,  142
1715, 2471, 1425, 2435, 1875
1716, 1561, 1546, 2707, 1627
1717,  132, 1466, 1467, 1487
1718, 2606, 1986,  190, 1747
1719, 2708, 1556, 1487, 1467
1720,  110, 1309, 1469, 1938
1721, 1902, 1899,  391, 1527
1722, 2485, 1494, 1470, 1441
1723, 2605, 1557, 1591, 1471
1724, 1488, 1442, 1591,  145
1725,  393, 1596, 2613, 1954
1726, 1474, 2548, 1491, 1443
1727, 1603, 1830,  315, 2500
1728, 2640, 2006, 2694, 1879
1729, 1475,  416, 1944,  436
1730,  242, 1477, 1104, 1910
1731, 1478, 1344,  468, 1452
1732, 1928, 1330, 2502,  397
1733, 1500, 2580, 1536, 1551
1734, 1501, 2691, 2705, 2636
1735,  220, 1457, 1483, 1934
1736, 1498, 2439, 1514,  136
1737,  143, 1841, 1929, 1499
1738, 1484,  361, 2499, 1486
1739,  338, 2420, 1484, 1486
1740, 2499, 1612, 1571, 1486
1741, 1518, 1488,  145, 1553
1742, 1465,  446, 1641, 1522
1743, 1510, 1489,  428, 1573
1744, 1752, 2715, 1583, 1525
1745,  173, 1468, 1490, 2671
1746, 1468, 1491, 2548, 1524
1747,  149, 1560, 1193, 1517
1748, 1493, 1560, 1523, 1474
1749, 2578, 2509, 2524, 1593
1750, 2509,  371, 1470, 2524
1751, 1416, 1495,  369, 1312
1752, 1519,  417, 1565, 1867
1753, 1926, 1710, 1924, 1498
1754, 1716, 1710, 1703, 1666
1755,  177, 1816, 1875, 1499
1756, 2535, 1500,  246, 1885
1757, 2637, 1633, 2691, 1501
1758, 1502,  315, 1830, 1879
1759, 1431, 1456, 2387,  467
1760, 1504,  407, 1529,  396
1761, 1504,  396, 2487, 1528
1762, 2644, 1770, 1778, 1505
1763, 1555, 1507, 1537,  165
1764,  164, 1383, 1507, 1555
1765,  202, 1538, 1459, 2415
1766, 1532, 1509, 1965, 2312
1767, 1510, 1573, 1539,  427
1768, 2522, 1588, 2521, 1576
1769, 1543, 2522, 1576, 2476
1770, 1541,  385, 1659,  386
1771, 1530, 1545,  338, 1486
1772, 1544, 1513, 1577,  314
1773, 1540, 1424,  137, 1579
1774,  114, 1548, 1515, 1547
1775,  256, 1916, 2370, 1534
1776, 2004, 1938, 1520,  111
1777, 1521,  174, 1550, 2648
1778,  171, 1984, 1523, 1560
1779, 1737, 2695, 1747, 1862
1780, 1583, 1566, 1582, 1525
1781, 2578, 1972, 1526, 2509
1782, 1526, 1594,  372, 1563
1783, 1528,  397, 2502, 1480
1784, 1529,  407, 1570, 2507
1785, 1564, 1530,  339, 1611
1786, 1531, 1569, 1604, 1636
1787, 1572,  967, 2347, 2392
1788, 1509, 1532, 2419,  361
1789,  256, 1516, 1533, 1973
1790,  251, 2458, 2401, 1433
1791, 1552, 2556, 1599,  243
1792, 1535, 1836, 2637, 1501
1793, 1551, 1536, 2614, 1554
1794, 2501, 1558, 1537, 1482
1795,  407, 1446, 1539, 1570
1796, 1174, 1953, 1215, 2412
1797, 1514, 1540, 1642,  136
1798,  386, 1637, 1657, 1541
1799,  250, 1511, 2522, 1543
1800, 1350, 1544,  314, 1870
1801, 1545, 1603, 2500,  338
1802, 1556, 2708,  133, 1584
1803, 1467, 1518, 1546, 2708
1804, 1575,   89, 2701, 1610
1805, 1578,  114, 1615, 1642
1806, 2460, 2519, 2463,  115
1807, 1549,  150, 2430, 1918
1808,  149, 1978,  171, 1560
1809, 1587, 1550,  174, 1620
1810, 1550, 1624,  175, 2648
1811,  246, 1500, 1551, 1617
1812,  243, 2442, 1806, 1552
1813, 1809, 1836, 1806, 2555
1814, 1590,  145, 1591, 1557
1815, 1959, 1553, 2639, 2116
1816, 2614, 1598, 1634, 1554
1817, 1554, 1634, 1915,  228
1818,  165, 2516, 1707, 1555
1819, 1520, 2018, 2710,  111
1820, 1590, 1557, 2648,  175
1821, 1600, 1736, 1640, 2544
1822,  165, 1537, 1558, 1661
1823,  203, 1718, 1708, 1695
1824, 1595, 1563, 1197, 2518
1825,  316, 2640, 2584, 1564
1826, 1657, 1602,  418, 1438
1827, 1867, 1565,  387, 2013
1828,  174, 1521, 1566, 1583
1829, 1582, 1444, 2604, 1525
1830,  412, 2032, 2160, 1699
1831,  453, 1654, 1605, 1413
1832,  408, 1678, 1901, 1608
1833, 1571,  362, 2512, 1616
1834, 2419, 1532, 1572, 2392
1835, 1573,  428, 1606,  408
1836, 2458, 1589, 1574, 2401
1837,  252, 1534, 1574, 1614
1838, 2521, 1589, 2458, 1576
1839, 2476, 1576, 2458,  251
1840, 1642, 1540, 1579, 1578
1841, 1886, 1580, 2051,  364
1842, 1586, 1581, 1585,  384
1843, 1592, 1584,  133, 1561
1844, 1720, 1729, 1702, 1680
1845,  390, 1647, 1665, 1626
1846, 1586, 1676, 1658, 1632
1847, 1583, 2715, 1620,  174
1848, 1652, 1624, 1550, 1587
1849,  224, 1692, 1677, 1664
1850, 1590,  175, 1888, 2639
1851,  145, 1590, 2639, 1553
1852, 1518, 1553, 2707, 1546
1853,  134, 1715, 1592, 1653
1854, 1621, 1593,  390, 1626
1855, 1621, 2634, 2578, 1593
1856, 1972, 1623, 1594, 1526
1857, 2620, 2014, 1596,  393
1858, 1647, 1625, 1894,  412
1859, 1567, 1597, 2680,  392
1860, 2691, 1633,  229, 1481
1861, 2683, 2684, 1950, 2631
1862, 1734, 2479, 1741, 1750
1863, 1602, 1657, 1637, 1565
1864,  434, 1619, 1636, 1604
1865, 1622, 1605, 1654, 2488
1866, 1649, 1606, 1638, 1650
1867, 1607, 2526, 2546,  429
1868, 1608,  395, 1927, 2507
1869, 2709, 2088, 2720, 1609
1870, 1643, 1656, 2675,  113
1871, 1611,  339, 1644, 1660
1872, 1660, 1644,  340, 2585
1873,  362, 1571, 1612, 1613
1874, 2392, 2347, 1618, 1613
1875, 1643,  113, 1673, 1655
1876, 1642, 1615, 2575,  136
1877,  339, 1571, 1616, 1644
1878, 1999, 2043, 2688, 1971
1879, 1618, 2375, 1645, 1951
1880, 1619, 1651, 1706,  433
1881, 1700, 1620, 2715, 1752
1882, 1671,  414, 2106, 2102
1883, 2057, 1624, 2689, 2697
1884, 1625,  391, 1631, 1894
1885, 1627, 1947, 2026, 1653
1886, 1630, 2613,  392, 2629
1887, 1597, 1894, 1631, 2680
1888, 1813, 1996,  230, 1809
1889, 1996, 2094, 2692,  230
1890, 1648, 1635, 1669,  265
1891, 1662, 1895, 2489, 2490
1892, 1636, 2489, 1895, 1531
1893,  386, 2594, 1919, 1637
1894, 1650, 1638,  429, 2573
1895, 1639, 2581, 1736, 1600
1896, 2547, 2513,  166, 2473
1897, 1151, 1641,  446, 1881
1898, 1656,  114, 1547, 1610
1899, 2674, 2585, 2048, 2162
1900, 1645, 2375,  400, 1055
1901,  223, 1614, 1646, 2459
1902, 1647,  412, 2610, 1665
1903, 1858, 1648,  265, 2400
1904,  408, 1606, 1649, 1678
1905, 2568,  430, 2569, 1689
1906,  409, 1649, 1650, 1912
1907, 1672, 1979, 1845,  434
1908, 1701,  192, 1683,  212
1909, 1652, 1900, 2689, 1624
1910, 1716, 1666, 2026,  144
1911, 1710, 1926,  135, 1703
1912, 2675, 1656, 1610, 2701
1913, 1676, 1586,  384, 1884
1914, 2414, 1724, 1658, 1676
1915, 1684, 1659, 1675, 2538
1916, 2543, 1687, 1667, 2516
1917, 2490, 1674, 2491, 1662
1918, 1663, 1629, 2328, 2082
1919, 1664, 1677, 1693, 1708
1920, 1665,  413, 2668, 1626
1921, 2610, 1679, 2551, 1690
1922, 1666, 1703, 1682,  134
1923, 1694, 1667, 1687, 1696
1924,  155, 1686, 1667, 1694
1925, 1652,  192, 1701, 1900
1926, 1714, 1900, 1701, 1711
1927,  435, 1668, 1376, 1955
1928,  413, 1690, 2597, 2652
1929, 1673, 1704, 1680, 1866
1930, 1655, 1673, 1866,  135
1931, 2551, 1679, 2570, 1674
1932, 1956, 1691, 2491,  432
1933, 1685, 1675,  377, 1705
1934, 2621, 1722, 1692, 1588
1935, 2622, 1693, 1677, 1698
1936, 2032,  412, 1894, 1597
1937,  135, 1866, 1682, 1703
1938, 1700, 1683,  192, 1620
1939, 1684,  376, 1709, 2594
1940,  386, 1659, 1684, 2594
1941, 1923, 1685, 1723, 2426
1942, 2016, 2230, 2233, 1880
1943, 1687, 2472, 2423, 1696
1944, 1993, 1688, 2546, 2498
1945, 1844, 1688, 1993,  448
1946, 2569,  410, 2632, 1689
1947, 1706, 2597, 2550,  433
1948, 1692, 1722, 1698, 1677
1949, 1693, 2581, 1695, 1708
1950, 1694,  154, 2376,  155
1951, 1712, 1736, 2581,  204
1952, 1639, 2545, 1695, 2581
1953, 2416, 1741, 2479, 1717
1954, 1932, 1717, 2479, 1734
1955, 1697,  279, 1360,  265
1956, 2622, 2666, 1732,  204
1957, 2579, 2122, 2069,  431
1958, 2160, 2579, 2188, 1699
1959, 1713, 2693, 1728, 2650
1960, 1711, 1701,  212, 1727
1961,  134, 1682, 1702, 1715
1962, 2713, 1720, 1680, 1704
1963, 1721, 2712, 2675, 2701
1964, 1706, 1671, 2652, 2597
1965, 1555, 1707, 2496,  164
1966,  203, 1538, 2467, 1718
1967, 2593, 1919, 2594, 1709
1968, 1926, 1498,  136, 2575
1969, 1749, 1732, 2666,  205
1970, 1738, 1713, 2650,  211
1971, 1683, 1700, 2693, 1713
1972, 1900, 1714,  193, 2689
1973, 1584, 1592, 1715, 1962
1974, 1716,  144, 1841,  143
1975, 2513, 2547, 1640,  185
1976, 2459, 1718, 2405,  223
1977, 1719, 1273,  279, 1697
1978, 2718, 1720, 2713,  112
1979, 1798,   90, 1740, 2719
1980, 2621,  225, 2609, 1722
1981, 2681, 2659,  205, 2666
1982, 2511, 2462, 1988, 1831
1983, 2469, 2496, 1707, 2527
1984,  156, 1998, 1725, 2469
1985, 2376,  154, 1735, 2316
1986, 1793,  232, 1797, 1803
1987, 2711, 2718, 1753, 2107
1988, 2408, 2405, 1718, 2467
1989, 2717, 1746,  112, 1731
1990, 2704, 2712, 1731,  112
1991, 1745, 1732, 1749,  186
1992, 1696, 2423, 1733, 2377
1993, 1745, 1750,  185, 1712
1994, 2292, 1742, 2316,  123
1995, 1746, 1753, 2718,  112
1996, 2020, 1937, 1737, 1862
1997, 2595,  211, 1996, 1813
1998,  231, 1813, 1809, 2555
1999, 1739,  232, 1776, 1748
2000, 1711, 1727, 1739, 2607
2001, 1740,   90, 2717, 1721
2002, 1741, 2513,  185, 1750
2003, 2095, 1864,  153, 2007
2004, 1750, 1745,  186, 2100
2005, 1762,  308, 1788,  307
2006, 1753, 1746, 1756, 2706
2007, 1524, 2606, 1747, 2673
2008, 1862, 1747,  190, 2582
2009, 2607, 1751,  213, 2657
2010, 2653, 1754, 1506,  206
2011, 1751, 1765, 1759,  213
2012,  213, 1759, 1755, 2649
2013, 1525, 2671, 1490, 1752
2014, 1700, 1752,  191, 2693
2015,   91, 1310, 1878, 2107
2016, 2710, 2711, 2107,  111
2017, 2100, 1763, 1834,  167
2018, 2100,  167, 1734, 1750
2019, 2653, 1760, 2608, 1754
2020, 2653,  206, 1766, 1760
2021, 1768, 1762,  307, 1773
2022, 1757, 1768, 1775, 1969
2023, 1758,  193, 1714, 2657
2024, 1755, 1759,  214, 1769
2025, 2616, 1763, 2608, 1760
2026, 1762, 1768, 1757, 1798
2027, 2615, 1834, 1763, 2616
2028, 1871, 2005, 1764, 1786
2029, 2474, 1776, 1771, 2438
2030, 1765,  233, 1783, 1761
2031, 1766, 1964, 2616, 1760
2032, 1772, 1767, 1782, 2667
2033,  214, 1761, 1767, 1772
2034,  306, 1768, 1773, 2661
2035, 1764, 1769, 2667, 1786
2036,  206, 1506,  226, 1778
2037, 1765, 1751, 2474,  233
2038, 2667, 1782, 2658, 1786
2039,  306, 2661, 1936, 2037
2040,  215, 1802, 1799, 2567
2041, 2682, 1969, 1775, 2660
2042, 1771, 1776,  232, 1793
2043, 2677, 1785, 2702, 1777
2044, 1780,  207, 2644, 2643
2045, 1779, 1790, 1784, 2438
2046,  207, 2677, 1770, 2644
2047, 1782,  215, 2567, 2658
2048, 2438, 1784,  233, 2474
2049,  234, 1774, 1783, 1975
2050, 1784, 1790, 1792, 1975
2051, 2646, 1791,  208, 2647
2052,  187, 2702, 1785, 1911
2053, 2670, 1808, 1871, 1786
2054,  216, 1800, 1794, 1827
2055, 1990, 1788,  308, 2088
2056, 1789, 2679, 1936, 2661
2057, 1773, 1781, 1789, 2661
2058, 1797,  232, 1739, 1727
2059,  207, 1780, 1795, 2687
2060, 1904, 1792,  240, 1073
2061, 1793, 1803, 2442, 1805
2062, 1802,  215, 1774,  234
2063, 1817,  195, 1819, 1821
2064, 1762, 1798, 2719,  308
2065, 1780, 2642, 2696, 1795
2066, 1971, 2641, 1893, 1999
2067, 2690, 1796, 1785, 2677
2068, 1803, 1797,  231, 2555
2069, 1825, 1827, 1829, 2449
2070,  195, 1807, 1800, 1819
2071, 2628, 1807, 1810, 1804
2072, 1147, 1802,  234, 1904
2073, 1808, 2645, 2220, 2212
2074, 2645,  194, 2628, 1804
2075, 1813,  231, 1812, 2595
2076, 1809,  230, 2637, 1836
2077, 2590, 2559, 1929, 1849
2078, 1804, 2590, 2220, 2645
2079, 1818, 1814, 2456,  196
2080, 2600, 1811, 1816,  177
2081, 1814, 1818, 1816, 1811
2082, 2183, 1815, 2172, 2116
2083, 1875, 1816,  178, 2471
2084,  196, 2456, 1824, 1822
2085, 1822, 1851, 2448,  196
2086,  178, 1816, 1818, 1889
2087, 1819, 1800,  216, 1821
2088, 1820, 2448, 1851, 2115
2089, 1828, 1826,  217,  989
2090, 1851, 1822, 2357,  197
2091, 1826, 1824, 2456, 1817
2092,  235, 1241, 1825, 2449
2093, 1817, 1821,  217, 1826
2094, 1827, 1794, 1799, 1829
2095, 2449, 1829, 1147, 1118
2096, 2640, 1879, 1830, 2584
2097, 2206, 2208, 2110,  355
2098,  989, 1832, 1060, 2317
2099, 2111, 1833, 2688, 2654
2100, 2696,  208, 1791, 1795
2101, 2118, 2564, 2039,  168
2102,  167, 1834, 2118, 2417
2103, 2082, 1835, 2298, 1663
2104, 1838,  262, 2470, 1885
2105, 1874, 2114,  246, 1617
2106, 1120, 1150, 2498,  447
2107, 2009, 2046, 1842, 1386
2108, 1735, 1839,  123, 2316
2109, 1840,  332, 2406, 1356
2110,  144, 2074, 2105, 1841
2111, 1844,  448, 2021, 1670
2112, 2611, 2109, 2656, 1845
2113,  414, 2656, 2109, 2106
2114, 2022, 1847, 1997,  374
2115, 1937, 2020, 1848, 2094
2116, 1849,  176, 2220, 2590
2117, 1870,  313, 1235, 1350
2118,  197,  999, 2115, 1851
2119, 1820, 2090, 1889, 2448
2120, 2041,  409, 1912, 2121
2121, 2166, 1901, 2030, 2552
2122, 2071, 2113, 2039, 2591
2123,  169, 2478, 1855, 2113
2124, 2044,  228, 1915, 2123
2125, 2043, 1999, 2542, 1874
2126,  317, 2674, 2024, 2716
2127, 1876, 1860,  456, 1226
2128,  413, 2652, 1861, 2668
2129, 1671, 2102, 1861, 2652
2130, 2019, 1950, 2684,  210
2131, 1864,  124, 2002,  153
2132, 1958, 2095, 2007, 2445
2133, 2015,  410, 2569, 1952
2134, 2065, 2024, 2674, 2162
2135, 1660, 2585, 2674,  317
2136, 1868,  363, 2165, 2108
2137, 2538, 2049,  376, 1684
2138, 1919, 2593, 2042,  387
2139,  356, 2352, 1872, 2117
2140, 2183, 2005, 1871, 1815
2141, 2698, 2697, 2689,  193
2142, 2114,  247, 1419, 1838
2143, 2050,  396, 1927, 2180
2144, 2051, 1877,  365, 2158
2145, 2107, 1878, 2031,  111
2146, 1076, 1881,  462, 2379
2147,  483, 1143, 1882, 1991
2148, 1883, 1805, 2442,  243
2149, 2525, 2023,  368, 1365
2150, 1925, 1884, 1175, 2096
2151, 2034, 2129, 2155, 2493
2152, 1580, 1886, 2129,  397
2153, 1887,  871, 1415, 1916
2154, 1888, 2183, 2116, 2639
2155, 2057, 1888,  175, 1624
2156, 2450, 1725, 1998, 2025
2157, 2120, 1936, 2679,  319
2158, 2160, 2032, 1597,  411
2159,  362, 1951, 2058, 2512
2160,  363, 1868, 1897, 2163
2161, 2164, 1940, 2027,  450
2162,  370, 1902, 1527, 2485
2163, 1907,  295, 2076, 2150
2164, 2099, 1908, 2139, 2562
2165, 1995, 2038, 2091,  297
2166, 2029, 2089,  170, 1917
2167, 2632, 2121, 1912, 1689
2168, 2151, 1913, 2066,  331
2169, 2426, 1723, 1913, 2098
2170, 1914,  654,  657,   84
2171,  209, 2123, 1915, 2683
2172, 1261, 1917,  170, 1942
2173, 2127,  169, 2113, 2071
2174, 1918, 2430, 1942, 2477
2175, 1918, 2061, 1978, 1549
2176, 2141, 2064, 2372,  465
2177, 2053, 1922, 2060, 2117
2178, 1921, 2060, 1922,  334
2179, 1923,  353, 2049, 2538
2180,  378, 2414, 1925, 2068
2181, 1655,  135, 1926, 2575
2182, 1927,  395, 2199, 2180
2183, 1927,  396, 1529, 2507
2184,  177, 1499, 1929, 2559
2185, 1930, 2148, 2093,  328
2186, 1932, 2417, 2040, 2390
2187,  813,  221, 2298, 1934
2188, 1990, 2088, 2103, 2703
2189, 2037, 1936, 2120, 2178
2190, 2650, 1728, 1937, 2094
2191, 2031, 1878, 2627, 1369
2192, 2686,  318, 2065, 2133
2193,  466, 1455, 1940, 2164
2194, 1259, 1199, 2383, 2382
2195, 2486, 1943, 2557,  373
2196, 1222,  372, 1943, 2486
2197, 2036,  415, 2611, 2558
2198, 1945, 1479,  451, 1898
2199, 2074, 1947, 2054, 2172
2200, 2073, 2200,  100, 1982
2201, 1948, 2179, 2077,  101
2202, 1949,  296, 2072, 2147
2203, 1949, 2147, 2076,  295
2204, 2019,  210, 1848, 2020
2205, 2138, 1950, 2019, 2582
2206, 2402, 1967, 2386, 2079
2207, 1548, 2464, 2463, 2519
2208, 1579, 1953, 2464, 1578
2209,  368, 2023, 2540, 2101
2210, 1956, 2143, 2083, 2418
2211,  178, 1957, 1425, 2471
2212, 1225, 1958, 2445,  152
2213, 2054, 1959, 2116, 2172
2214, 1553, 1959, 2054, 2707
2215, 2173, 1966, 2097, 2025
2216, 1977, 2011,  321, 1209
2217, 1963,  116,  944,  898
2218,  187, 2127, 2071, 2633
2219, 1964, 2591, 2615, 2616
2220, 2097,  162, 1960,  163
2221, 2163, 2079, 2146,  363
2222,  416, 1496, 2678, 2008
2223, 1994, 2035, 2092, 2242
2224,  122, 1742, 1970, 2077
2225,  123, 2009, 2078, 2292
2226, 2641, 1833, 2696, 2642
2227, 1623, 1972,  389, 2125
2228, 1974,  844,  286, 1097
2229, 1977, 2202, 2169, 2192
2230, 1955, 2036, 2558,  435
2231, 1979, 2558, 2611, 1845
2232, 2242, 2092, 2273,   99
2233, 2073, 2273, 2145,  121
2234, 1837,   83,  847,  878
2235, 2508,  171, 1978, 2061
2236, 2059, 1986, 2514, 2508
2237, 1873, 1764, 2697, 2698
2238,  482, 2314, 1423, 1985
2239,  172, 2514, 1986, 2606
2240, 2137, 2075, 2086, 2437
2241, 2068, 2354, 2413,  378
2242, 1988,  355, 2110, 1831
2243,  479, 1381, 1989, 2064
2244, 1990, 2703, 2714, 1859
2245, 1991,  884, 2258,  483
2246,  462, 1260, 1992, 2379
2247,  700, 1994, 2242,  667
2248, 2094, 1996,  211, 2650
2249, 2557, 2028, 2612, 2085
2250, 2441, 1725, 2450, 2446
2251, 2080, 2000,  158, 1966
2252,  465, 2184, 2067, 2371
2253, 2046, 2002,  124, 1842
2254, 2309, 2002, 2046, 1839
2255,  455, 1334, 2003, 2454
2256, 2018, 1520, 1556, 1584
2257,  309, 2694, 2006, 2709
2258, 2103,  316, 1935, 2703
2259, 2040,  168, 2445, 2007
2260, 2168,  415, 2197, 2662
2261, 2078,  102, 1906, 1970
2262, 2087,  294, 1907, 2150
2263,  331, 2012, 2010, 2087
2264, 2221, 2011, 2586, 2196
2265,  331, 2066, 2208, 2012
2266, 2042, 2124, 2013,  387
2267, 2171, 2013, 2124, 2215
2268, 2140,  394, 2204, 2189
2269, 2014,  410, 2015, 1865
2270, 1865, 2015, 2122,  411
2271, 2185, 2016, 2126, 2219
2272, 2016, 2185, 2425, 2230
2273, 2017,  344, 2539, 2170
2274, 2017,  367, 2540, 2023
2275,  190, 2063, 2138, 2582
2276, 2019, 2020, 1862, 2582
2277, 2021,  448, 2497, 2131
2278, 2213, 2177, 2494,  449
2279, 2175, 2062, 2223, 2187
2280,  375, 2157, 2187, 2533
2281, 2154, 2540,  367, 2601
2282, 1781, 1859, 2716,  318
2283,  163, 2450, 2025, 2097
2284, 1945, 1898, 2027, 1940
2285,  187, 1911, 2029, 2127
2286, 2030, 1852, 2204,  394
2287,  394, 2601, 2552, 2030
2288, 2630, 2031, 1369, 2592
2289, 2160,  411, 2122, 2579
2290, 2211, 2318, 2174, 2343
2291, 1891, 2033, 2281,  119
2292, 2155, 2129, 1886,  364
2293,  398, 2146, 2079, 2386
2294, 2035, 2343,  120, 2092
2295, 2119, 1944,  416, 2008
2296, 1892,  305, 2037, 2178
2297, 2091, 2038, 2304,  328
2298, 2620, 2041, 2121, 2014
2299,  375, 2533, 2042, 2593
2300, 2043, 1874, 1617, 1856
2301, 2123, 2056, 2111, 2044
2302, 2191, 2495, 2184, 2232
2303, 2045, 2494, 2131, 2497
2304, 2136, 2185, 2224, 2210
2305, 2162,  341, 2133, 2065
2306, 2181, 2157,  375, 1869
2307, 2156, 2050, 2180, 2199
2308,  356, 2137, 2159, 2352
2309, 1857, 2135, 2319,  379
2310, 2354, 2068,  379, 2319
2311, 2055, 2159, 2137, 2437
2312,  208, 2111, 2056, 2647
2313, 2631, 2139,  209, 2683
2314, 2063, 2059, 2128,  189
2315, 2060, 1921,  333, 2351
2316, 2061, 2128, 2059, 2508
2317, 2089, 2541, 2195, 2477
2318, 2093, 2148, 2229,  329
2319,  189, 2084, 2138, 2063
2320,  318, 2716, 2024, 2065
2321, 2664, 2081, 2685, 2214
2322, 2066,  354, 2110, 2208
2323,  330, 2151, 2150, 2076
2324, 2067, 2184, 2410, 2132
2325,  464, 1920, 2067, 2132
2326, 2319, 2052, 2159, 2354
2327, 2510,  430, 2021, 2131
2328,  432, 2570, 2188, 2070
2329,  449, 2083, 2143, 2213
2330, 2633, 2071, 2591, 1964
2331, 2147, 2072,  329, 2234
2332, 2072,  296, 1983, 2144
2333,  176, 1849, 2105, 2669
2334,  333, 1987, 2075, 2351
2335, 2292, 2078, 1970, 1742
2336, 2146,  398, 2034, 2493
2337, 2362,  157, 2174, 2318
2338,  319, 1939, 2685, 2081
2339, 2232, 2184,  465, 2372
2340, 2084, 2562, 2139, 2631
2341, 2663, 2167, 2619, 2612
2342, 2198, 2171, 2226, 2619
2343, 2206,  332, 2012, 2208
2344, 2149, 2099, 2562, 2231
2345, 1957, 2090,  179, 2388
2346,  328, 2093, 2144, 2091
2347,  120, 2186, 2210, 2145
2348, 2692, 2094, 1848, 2651
2349, 2098, 2193, 2152, 2426
2350, 2128, 2149, 2231,  189
2351, 2099, 2541, 2583, 1908
2352, 2603, 2154, 2140, 2189
2353,  393, 1954, 2101, 2603
2354,  389, 2634, 2102, 2106
2355, 1861, 2102, 2634, 1621
2356, 2104, 1072, 2247,  489
2357, 2107, 1753, 2706,   91
2358,  340, 1868, 2108, 2572
2359, 2493, 2165,  363, 2146
2360, 2656,  414, 1651, 1845
2361, 2168, 2216, 2655,  415
2362, 2206,  355, 2437, 2086
2363, 2118,  168, 2040, 2417
2364, 2036, 2119, 2197,  415
2365, 2134, 2178, 2120,  319
2366,  410, 2014, 2121, 2632
2367, 2041, 2620, 2189, 2204
2368,  431, 2070, 2188, 2579
2369, 2123,  209, 2139, 2056
2370, 2161, 2125,  389, 2106
2371, 2179, 2126,  122, 2077
2372, 2219, 2126, 2179, 2200
2373, 2130, 1968, 2281, 2211
2374, 2318, 2211, 2281, 2033
2375, 2131, 2494, 2177, 2510
2376, 2045, 2444, 2132, 2410
2377,  341, 2194, 2214, 2133
2378, 2228,  320, 2134, 2190
2379,  380, 2135, 1857, 2254
2380, 2186, 2174,  157, 2047
2381, 2075, 2137,  356, 2351
2382, 2562, 2084,  189, 2231
2383,  478, 2207, 2340, 1920
2384, 2064, 2141, 2291,  479
2385, 2142, 2191, 2232, 2153
2386, 2164, 2142, 2153,  466
2387, 2070,  431, 2213, 2143
2388, 2177, 2213,  431, 2069
2389, 2273, 2073, 1982,   99
2390, 2229, 2193, 2234,  329
2391,  352, 2148, 2062, 2175
2392,  352, 2201, 2229, 2148
2393, 2149, 2195, 2541, 2099
2394, 2201, 2152, 2193, 2229
2395, 2152, 2201, 2181,  353
2396, 2153, 2232, 2372, 2112
2397, 2166, 2552, 2203,  395
2398,  394, 2140, 2154, 2601
2399, 2554, 2155,  364, 2194
2400, 2165, 2493, 2155, 2554
2401, 2156,  366, 2217,  365
2402, 2157,  352, 2175, 2187
2403, 2205, 2158,  365, 2217
2404, 2176, 2554, 2194,  341
2405, 2352, 2159, 2052, 1872
2406, 2055, 2413, 2354, 2159
2407,  341, 2162, 2048, 2176
2408, 2079, 2163, 2058, 2402
2409, 2203, 2552, 2601,  367
2410, 2167,  388, 2198, 2619
2411, 2167, 2663, 2662, 2197
2412, 2216, 2168, 2662, 2028
2413, 2561, 2182, 2169, 2202
2414, 2192, 2169, 2182,  343
2415, 2588, 2587, 2624, 2625
2416,  367, 2017, 2170, 2209
2417,  374, 2226, 2171, 2215
2418, 2013, 2171, 2198,  388
2419,  176, 2669, 2172, 1815
2420, 2025,  157, 2362, 2173
2421,  120, 2343, 2174, 2186
2422, 2187, 2223, 2215, 2533
2423,  320, 1892, 2178, 2134
2424,  352, 2157, 2181, 2201
2425,  343, 2182, 2228, 2218
2426, 2410,  449, 2494, 2045
2427, 2224, 2185, 2219,  121
2428,  393, 2603, 2189, 2620
2429, 2190,  342, 2218, 2228
2430, 2083, 2191, 2142, 2418
2431, 2410, 2184, 2495,  449
2432, 2222, 2192,  343, 2227
2433, 1977, 2192, 2586, 2011
2434, 2588, 2589, 2209, 2170
2435,  366, 2602, 2209, 2589
2436,  366, 2156, 2199, 2602
2437, 2073,  121, 2219, 2200
2438, 2561, 2202, 1214, 1315
2439, 2203,  367, 2209, 2602
2440, 2214, 2205,  342, 2664
2441,  332, 2206, 2086, 2406
2442, 2291, 2207, 2271, 1072
2443,  121, 2145, 2210, 2224
2444,  366, 2589, 2626, 2217
2445, 2590, 1804, 1810, 2559
2446,  344, 1961, 2221, 2539
2447, 2192, 2222, 2196, 2586
2448, 2223, 2022,  374, 2215
2449, 2230, 2425,  156, 2469
2450, 2619, 2226, 2085, 2612
2451, 2227,  343, 2218, 2672
2452,  320, 2228, 2182, 2561
2453, 2230, 2469, 2527, 2233
2454, 2233, 1686,  155, 2424
2455,  632, 2235,  358, 2243
2456, 2239, 2238,  487,  824
2457,  637, 2241,  625, 2249
2458, 2251,  817, 2320,  253
2459,  638,  634, 2259, 2260
2460, 2260, 2259, 2283, 2284
2461, 2265,  792,  269, 1003
2462, 2303, 2269,  475, 1242
2463,  181, 1010, 2276, 2277
2464, 2275,  636,  638, 2260
2465, 2283,   95,  804, 2284
2466, 1316, 2264, 2289, 2290
2467, 2299,  327,  948, 2279
2468,  939,  400, 2345, 2301
2469, 2346, 2345,  400, 2375
2470, 2304, 1909, 2344, 1325
2471,  180, 2305,  890, 2342
2472, 2308,  180, 2342,  950
2473, 2309, 1743,  153, 2002
2474, 2383, 1212, 2310, 2382
2475, 1207,  424, 2311, 2349
2476, 2368, 2315,   94, 1026
2477, 2318, 2033, 2080, 2362
2478, 1075, 1030, 2322, 2363
2479, 2363, 2322,  420, 1542
2480, 1008,  288, 2325, 2326
2481, 2333, 1254, 2332, 1088
2482, 2339, 2360, 2359, 2358
2483, 2360,  323, 2397, 2398
2484, 1025, 2339, 2358, 1095
2485, 2067, 1920, 2340, 2371
2486, 2263,  904, 1032,  966
2487, 2130, 2211, 2343, 2035
2488, 2302, 2346, 2347,  967
2489, 2347, 2346, 2375, 1618
2490, 2350,  878,  944,  116
2491, 1360, 1340, 2355, 2356
2492, 2360, 2339, 2338,  323
2493, 1203, 1174, 2412, 2364
2494, 2365, 1221, 2465,  439
2495, 2366, 1361, 2391, 1091
2496, 2376, 1726, 2424,  155
2497, 2378,  445, 2427, 2433
2498, 2381,  108, 2431, 1080
2499,  398, 2386, 1206, 2443
2500,  153, 1743, 2389, 2390
2501, 1717, 2389, 1733, 2416
2502,  348, 2407, 1259, 2382
2503, 1323, 2393, 2396,  257
2504, 2447, 2303, 1242, 1271
2505, 2394,  952,  987, 2395
2506, 2397, 1127, 1183, 2398
2507, 2447, 2399,  461, 2348
2508,  265, 1360, 2356, 2400
2509, 2403, 2402, 2058, 1951
2510, 1730, 1744, 2405, 2408
2511, 2462, 2414,  378, 2413
2512, 2416, 1733, 2423,  166
2513, 2420,  338, 2500, 1513
2514, 2421, 2452, 1084,   93
2515, 2425, 2185, 2136,  156
2516, 2428, 1007,  277, 1040
2517,  150, 1200, 2429, 2430
2518, 2433, 2427, 2453, 1485
2519, 2434, 1399, 1267, 1329
2520,  142, 2435, 1375, 2439
2521, 2436,  349, 2518, 1197
2522, 1890, 1106, 1281, 2446
2523, 1725, 2441, 2496, 2469
2524, 2442, 1803, 2555, 1806
2525,  448, 2444, 2045, 2497
2526,  115, 2440, 1146, 2460
2527, 2450,  163, 1890, 2446
2528,  251, 2451, 1396, 2476
2529, 2431,  108, 1093, 1279
2530, 2515, 2454, 1337, 2563
2531, 1681,  264, 2481, 1391
2532, 1103, 1285, 2519, 2460
2533, 2461, 1333, 2560, 1437
2534, 1724, 2414, 2462, 2511
2535, 2530, 2466, 1040, 1100
2536, 2466,  263, 2534, 1099
2537, 1559, 1730, 2408, 2467
2538, 2472, 1687, 2543, 1661
2539,  166, 2423, 2472, 2473
2540, 2475,  447, 2526, 1151
2541,  345, 1447, 2525, 2483
2542, 2488,  435, 2558, 1979
2543, 2490, 2489,  433, 2550
2544,  432, 2491, 1674, 2570
2545, 2492, 1275, 2536, 1377
2546, 2504, 1362,  146, 1471
2547, 1984,  171, 2508, 2514
2548, 2506, 2505,  131, 2523
2549, 2392, 1613, 1612, 2419
2550, 1686, 1707, 2516, 1667
2551, 2556, 2520,  244, 1599
2552, 1588, 2522, 1511, 2621
2553, 2524, 1470, 1494, 1593
2554, 2546, 2526,  447, 2498
2555, 2553, 2531, 1218, 1156
2556, 2541, 2089,  188, 2583
2557, 2544, 1640, 2547, 2473
2558, 2545, 1508,  203, 1695
2559,  429, 2546, 1688, 2573
2560, 2548,  172, 2606, 1524
2561, 2604, 2549, 1405,  173
2562, 1674, 2490, 2550, 2551
2563, 2559, 1810, 2600,  177
2564, 2515, 2563, 2565,  437
2565, 1397, 2577, 2565, 2563
2566, 2566, 1437, 2609,  225
2567, 2658, 2567, 2617, 1787
2568, 2580, 1379,  245, 1536
2569, 1481, 1536,  245, 2665
2570,  204, 2581, 1693, 2622
2571, 2170, 2539, 2587, 2588
2572, 2595, 1812, 1738,  211
2573, 1458, 1439, 2596, 2636
2574, 2598,  227, 2642, 1780
2575, 1377, 2536, 2598, 2599
2576, 2611,  415, 2655, 2109
2577, 2612, 2028, 2662, 2663
2578, 1630, 1495, 1954, 2613
2579, 2614,  229, 2651, 1598
2580, 1867, 2013,  388, 2678
2581, 2660, 2623, 1368, 2682
2582, 2037, 2623, 2660,  306
2583, 2624, 2222, 2227, 2625
2584, 2589, 2588, 2625, 2626
2585, 2672, 2205, 2217, 2626
2586, 2629,  392, 2680, 1899
2587, 2633, 1777, 2702,  187
2588, 1633, 2637,  230, 2692
2589, 2641, 1971, 2688, 1833
2590,  227, 1893, 2641, 2642
2591, 1505, 2599, 2643, 2644
2592,  194, 2645, 1808, 2670
2593, 1796, 2690, 1791, 2646
2594, 1908, 2583, 2646, 2647
2595, 2657,  213, 2649, 1758
2596, 2658, 1787, 2670, 1786
2597,  205, 2659, 1463, 1506
2598, 2681, 1698, 1722, 2659
2599, 2626, 2625, 2227, 2672
2600, 2676,  309, 2709, 1609
2601, 2677,  207, 2687, 2690
2602, 2699, 2679, 1789, 2700
2603, 2682, 1368, 1310,   91
2604, 2686, 2685, 1939, 2699
2605, 2694,  309, 1454, 1879
2606, 2698,  193, 1758, 1873
2607, 2700, 1789, 1781,  318
2608, 2703, 1935,  317, 2714
2609,  113, 2675, 2712, 2704
2610, 2711, 1729, 1720, 2718
2611, 2712, 1721, 2717, 1731
2612, 2719, 2720, 2088,  308
2613, 2716, 1859, 2714,  317
2614, 2711, 2710, 1962, 1729
*Nset, nset=Set-1, generate
    1,  2720,     1
*Elset, elset=Set-1, generate
    1,  2614,     1
** Section: Section-1
*Solid Section, elset=Set-1, material="Mild Steel"
,
*End Part
**  
**
** ASSEMBLY
**
*Assembly, name=Assembly
**  
*Instance, name=Part-1-1, part=Part-1
*End Instance
**  
*Nset, nset=OuterBoundary, instance=Part-1-1
   1,   2,   3,   4,   5,   6,   7,   8,   9,  10,  11,  12,  13,  14,  15,  16
  17,  18,  19,  20,  21,  22,  23,  24,  25,  26,  27,  28,  29,  30,  31,  32
  33,  34,  35,  36,  37,  38,  39,  40,  41,  42,  43,  44,  45,  46,  47,  48
  49,  50,  51,  52,  53,  54, 494, 495, 496, 497, 498, 499, 500, 501, 502, 503
 504, 505, 506, 507, 508, 509, 510, 511, 512, 513, 514, 515, 516, 517, 518, 519
 520, 521, 522, 523, 524, 525, 526, 527, 528, 529, 530, 531, 532, 533, 534, 535
 536, 537, 538, 539, 540, 541, 542, 543, 544, 545, 546, 547, 548, 549, 550, 551
 552, 553, 554, 555, 556, 557, 558, 559, 560, 561, 562, 563, 564, 565, 566, 567
 568, 569, 570, 571, 572, 573, 574, 575, 576, 577, 578, 579, 580, 581, 582, 583
 584, 585, 586, 587, 588, 589, 590, 591, 592, 593, 594, 595, 596
*End Assembly
** 
** MATERIALS
** 
*Material, name="Mild Steel"
*Elastic
210000., 0.3
** ----------------------------------------------------------------
** 
** STEP: Step-1
** 
*Step, name=Step-1, nlgeom=NO
*Static
1., 1., 1e-05, 1.
*Include, Input=node_sets.inp
*Include, Input=node_bc.inp
** 
** OUTPUT REQUESTS
** 
*Restart, write, frequency=0
** 
** FIELD OUTPUT: F-Output-1
** 
*Output, field, variable=PRESELECT
** 
** HISTORY OUTPUT: H-Output-1
** 
*Output, history, variable=PRESELECT
*End Step
